
     Program PWSCF v.7.0 starts on  7Jan2024 at 11:13:52 

     This program is part of the open-source Quantum ESPRESSO suite
     for quantum simulation of materials; please cite
         "P. Giannozzi et al., J. Phys.:Condens. Matter 21 395502 (2009);
         "P. Giannozzi et al., J. Phys.:Condens. Matter 29 465901 (2017);
         "P. Giannozzi et al., J. Chem. Phys. 152 154105 (2020);
          URL http://www.quantum-espresso.org", 
     in publications or presentations arising from this work. More details at
     http://www.quantum-espresso.org/quote

     Parallel version (MPI), running on     4 processors

     MPI processes distributed on     1 nodes
     K-points division:     npool     =       4
     14846 MiB available memory on the printing compute node when the environment starts

     Waiting for input...
     Reading input from standard input
Warning: card &CELL ignored
Warning: card   CELL_DYNAMICS = 'BFGS' ignored
Warning: card   PRESS = 0 ignored
Warning: card   PRESS_CONV_THR = 0.01 ignored
Warning: card   CELL_DOFREE = '2DXY' ignored
Warning: card / ignored

     Current dimensions of program PWSCF are:
     Max number of different atomic species (ntypx) = 10
     Max number of k-points (npk) =  40000
     Max angular momentum in pseudopotentials (lmaxx) =  4
     file H.pbe-kjpaw_psl.1.0.0.UPF: wavefunction(s)  1S renormalized
     file O.pbe-nl-kjpaw_psl.1.0.0.UPF: wavefunction(s)  2S 2P renormalized

     Subspace diagonalization in iterative solution of the eigenvalue problem:
     a serial algorithm will be used


     G-vector sticks info
     --------------------
     sticks:   dense  smooth     PW     G-vecs:    dense   smooth      PW
     Sum        2591    1289    371               410247   144983   22287

     Using Slab Decomposition



     bravais-lattice index     =            0
     lattice parameter (alat)  =       8.8254  a.u.
     unit-cell volume          =    2310.3531 (a.u.)^3
     number of atoms/cell      =           12
     number of atomic types    =            2
     number of electrons       =        32.00
     number of Kohn-Sham states=           16
     kinetic-energy cutoff     =      60.0000  Ry
     charge density cutoff     =     480.0000  Ry
     scf convergence threshold =      1.0E-10
     mixing beta               =       0.7000
     number of iterations used =            8  plain     mixing
     energy convergence thresh.=      1.0E-04
     force convergence thresh. =      1.0E-05
     Exchange-correlation= SLA  PW   PBX  PBC
                           (   1   4   3   4   0   0   0)
     nstep                     =         2000


     celldm(1)=   8.825399  celldm(2)=   0.000000  celldm(3)=   0.000000
     celldm(4)=   0.000000  celldm(5)=   0.000000  celldm(6)=   0.000000

     crystal axes: (cart. coord. in units of alat)
               a(1) = (   0.998567   0.053521   0.000000 )  
               a(2) = (   0.463144   0.898119   0.000000 )  
               a(3) = (   0.000000   0.000000   3.854225 )  

     reciprocal axes: (cart. coord. in units 2 pi/alat)
               b(1) = (  1.029901 -0.531102  0.000000 )  
               b(2) = ( -0.061374  1.145088  0.000000 )  
               b(3) = (  0.000000  0.000000  0.259456 )  


     PseudoPot. # 1 for H  read from file:
     /home/sigma/Program/pot-QE/pslibrary-master/pbe/PSEUDOPOTENTIALS/H.pbe-kjpaw_psl.1.0.0.UPF
     MD5 check sum: 71c94cef2405c588d6d9331d5980da35
     Pseudo is Projector augmented-wave, Zval =  1.0
     Generated using 'atomic' code by A. Dal Corso  v.6.7MaX
     Shape of augmentation charge: PSQ
     Using radial grid of  929 points,  2 beta functions with: 
                l(1) =   0
                l(2) =   0
     Q(r) pseudized with 0 coefficients 


     PseudoPot. # 2 for O  read from file:
     /home/sigma/Program/pot-QE/pslibrary-master/pbe/PSEUDOPOTENTIALS/O.pbe-nl-kjpaw_psl.1.0.0.UPF
     MD5 check sum: bb2ef7cfed4ee2ae0e527fd084996761
     Pseudo is Projector augmented-wave + core cor, Zval =  6.0
     Generated using 'atomic' code by A. Dal Corso  v.6.7MaX
     Shape of augmentation charge: PSQ
     Using radial grid of 1095 points,  4 beta functions with: 
                l(1) =   0
                l(2) =   0
                l(3) =   1
                l(4) =   1
     Q(r) pseudized with 0 coefficients 


     atomic species   valence    mass     pseudopotential
        H              1.00     1.00798     H ( 1.00)
        O              6.00    15.99940     O ( 1.00)

     No symmetry found



   Cartesian axes

     site n.     atom                  positions (alat units)
         1           H   tau(   1) = (   0.9014237   0.8236466   2.3755338  )
         2           H   tau(   2) = (   1.1119236   0.8918517   2.1325587  )
         3           H   tau(   3) = (   0.6428457   0.2962824   1.7341098  )
         4           H   tau(   4) = (   0.7101726   0.5439017   1.9141009  )
         5           H   tau(   5) = (   0.9407812   0.8163090   1.8653946  )
         6           H   tau(   6) = (   1.3382775   0.9116253   1.8025440  )
         7           H   tau(   7) = (   0.7854541   0.3487565   2.3121748  )
         8           H   tau(   8) = (   0.3748011   0.6285740   2.4147958  )
         9           O   tau(   9) = (   1.0493373   0.8970723   2.4361198  )
        10           O   tau(  10) = (   0.7751039   0.6359392   1.7642392  )
        11           O   tau(  11) = (   1.1153650   0.9400345   1.7383267  )
        12           O   tau(  12) = (   0.6684984   0.5778795   2.3569370  )

     number of k points=    10
                       cart. coord. in units 2pi/alat
        k(    1) = (   0.0000000   0.0000000   0.0000000), wk =   0.1250000
        k(    2) = (  -0.0153435   0.2862719   0.0000000), wk =   0.2500000
        k(    3) = (   0.0306869  -0.5725439   0.0000000), wk =   0.1250000
        k(    4) = (   0.2574753  -0.1327754   0.0000000), wk =   0.2500000
        k(    5) = (   0.2421318   0.1534965   0.0000000), wk =   0.2500000
        k(    6) = (   0.2881622  -0.7053193   0.0000000), wk =   0.2500000
        k(    7) = (   0.2728187  -0.4190474   0.0000000), wk =   0.2500000
        k(    8) = (  -0.5149505   0.2655508   0.0000000), wk =   0.1250000
        k(    9) = (  -0.5302940   0.5518228   0.0000000), wk =   0.2500000
        k(   10) = (  -0.4842636  -0.3069931   0.0000000), wk =   0.1250000

     Dense  grid:   410247 G-vectors     FFT dimensions: (  64,  64, 240)

     Smooth grid:   144983 G-vectors     FFT dimensions: (  45,  45, 180)

     Estimated max dynamical RAM per process >     385.43 MB

     Estimated total dynamical RAM >       1.21 GB

     Initial potential from superposition of free atoms

     starting charge      31.9999, renormalised to      32.0000

     negative rho (up, down):  3.877E-04 0.000E+00
     Starting wfcs are   24 randomized atomic wfcs
     Checking if some PAW data can be deallocated... 

     total cpu time spent up to now is       10.1 secs

     per-process dynamical memory:   179.6 Mb

     Self-consistent Calculation

     iteration #  1     ecut=    60.00 Ry     beta= 0.70
     Davidson diagonalization with overlap
     ethr =  1.00E-02,  avg # of iterations =  2.0

     negative rho (up, down):  5.048E-04 0.000E+00

     total cpu time spent up to now is       15.8 secs

     total energy              =    -174.73520751 Ry
     estimated scf accuracy    <       1.77203985 Ry

     iteration #  2     ecut=    60.00 Ry     beta= 0.70
     Davidson diagonalization with overlap
     ethr =  5.54E-03,  avg # of iterations =  5.0

     negative rho (up, down):  5.304E-04 0.000E+00

     total cpu time spent up to now is       22.9 secs

     total energy              =    -174.98063466 Ry
     estimated scf accuracy    <       3.29030717 Ry

     iteration #  3     ecut=    60.00 Ry     beta= 0.70
     Davidson diagonalization with overlap
     ethr =  5.54E-03,  avg # of iterations =  3.7

     negative rho (up, down):  4.417E-04 0.000E+00

     total cpu time spent up to now is       28.9 secs

     total energy              =    -175.52316177 Ry
     estimated scf accuracy    <       0.16574179 Ry

     iteration #  4     ecut=    60.00 Ry     beta= 0.70
     Davidson diagonalization with overlap
     ethr =  5.18E-04,  avg # of iterations =  3.8

     negative rho (up, down):  4.570E-04 0.000E+00

     total cpu time spent up to now is       35.0 secs

     total energy              =    -175.57819157 Ry
     estimated scf accuracy    <       0.01669411 Ry

     iteration #  5     ecut=    60.00 Ry     beta= 0.70
     Davidson diagonalization with overlap
     ethr =  5.22E-05,  avg # of iterations =  5.0

     negative rho (up, down):  4.750E-04 0.000E+00

     total cpu time spent up to now is       41.4 secs

     total energy              =    -175.58287949 Ry
     estimated scf accuracy    <       0.01187865 Ry

     iteration #  6     ecut=    60.00 Ry     beta= 0.70
     Davidson diagonalization with overlap
     ethr =  3.71E-05,  avg # of iterations =  2.9

     negative rho (up, down):  4.786E-04 0.000E+00

     total cpu time spent up to now is       46.5 secs

     total energy              =    -175.58408190 Ry
     estimated scf accuracy    <       0.00162094 Ry

     iteration #  7     ecut=    60.00 Ry     beta= 0.70
     Davidson diagonalization with overlap
     ethr =  5.07E-06,  avg # of iterations =  4.2

     negative rho (up, down):  4.789E-04 0.000E+00

     total cpu time spent up to now is       52.3 secs

     total energy              =    -175.58435003 Ry
     estimated scf accuracy    <       0.00053642 Ry

     iteration #  8     ecut=    60.00 Ry     beta= 0.70
     Davidson diagonalization with overlap
     ethr =  1.68E-06,  avg # of iterations =  2.3

     negative rho (up, down):  4.797E-04 0.000E+00

     total cpu time spent up to now is       57.2 secs

     total energy              =    -175.58433442 Ry
     estimated scf accuracy    <       0.00015885 Ry

     iteration #  9     ecut=    60.00 Ry     beta= 0.70
     Davidson diagonalization with overlap
     ethr =  4.96E-07,  avg # of iterations =  3.6

     negative rho (up, down):  4.791E-04 0.000E+00

     total cpu time spent up to now is       63.3 secs

     total energy              =    -175.58438470 Ry
     estimated scf accuracy    <       0.00004539 Ry

     iteration # 10     ecut=    60.00 Ry     beta= 0.70
     Davidson diagonalization with overlap
     ethr =  1.42E-07,  avg # of iterations =  3.7

     negative rho (up, down):  4.787E-04 0.000E+00

     total cpu time spent up to now is       68.6 secs

     total energy              =    -175.58438597 Ry
     estimated scf accuracy    <       0.00001884 Ry

     iteration # 11     ecut=    60.00 Ry     beta= 0.70
     Davidson diagonalization with overlap
     ethr =  5.89E-08,  avg # of iterations =  2.4

     negative rho (up, down):  4.787E-04 0.000E+00

     total cpu time spent up to now is       73.7 secs

     total energy              =    -175.58438820 Ry
     estimated scf accuracy    <       0.00000133 Ry

     iteration # 12     ecut=    60.00 Ry     beta= 0.70
     Davidson diagonalization with overlap
     ethr =  4.16E-09,  avg # of iterations =  5.4

     negative rho (up, down):  4.789E-04 0.000E+00

     total cpu time spent up to now is       81.2 secs

     total energy              =    -175.58438917 Ry
     estimated scf accuracy    <       0.00000169 Ry

     iteration # 13     ecut=    60.00 Ry     beta= 0.70
     Davidson diagonalization with overlap
     ethr =  4.16E-09,  avg # of iterations =  2.8

     negative rho (up, down):  4.789E-04 0.000E+00

     total cpu time spent up to now is       85.9 secs

     total energy              =    -175.58438912 Ry
     estimated scf accuracy    <       0.00000039 Ry

     iteration # 14     ecut=    60.00 Ry     beta= 0.70
     Davidson diagonalization with overlap
     ethr =  1.20E-09,  avg # of iterations =  4.1

     negative rho (up, down):  4.789E-04 0.000E+00

     total cpu time spent up to now is       91.5 secs

     total energy              =    -175.58438924 Ry
     estimated scf accuracy    <       0.00000006 Ry

     iteration # 15     ecut=    60.00 Ry     beta= 0.70
     Davidson diagonalization with overlap
     ethr =  1.72E-10,  avg # of iterations =  2.8

     negative rho (up, down):  4.789E-04 0.000E+00

     total cpu time spent up to now is       96.6 secs

     total energy              =    -175.58438924 Ry
     estimated scf accuracy    <       0.00000004 Ry

     iteration # 16     ecut=    60.00 Ry     beta= 0.70
     Davidson diagonalization with overlap
     ethr =  1.18E-10,  avg # of iterations =  3.3

     negative rho (up, down):  4.789E-04 0.000E+00

     total cpu time spent up to now is      101.3 secs

     total energy              =    -175.58438924 Ry
     estimated scf accuracy    <       0.00000001 Ry

     iteration # 17     ecut=    60.00 Ry     beta= 0.70
     Davidson diagonalization with overlap
     ethr =  3.62E-11,  avg # of iterations =  2.4

     negative rho (up, down):  4.789E-04 0.000E+00

     total cpu time spent up to now is      106.1 secs

     total energy              =    -175.58438924 Ry
     estimated scf accuracy    <          2.0E-09 Ry

     iteration # 18     ecut=    60.00 Ry     beta= 0.70
     Davidson diagonalization with overlap
     ethr =  6.40E-12,  avg # of iterations =  3.7

     negative rho (up, down):  4.789E-04 0.000E+00

     total cpu time spent up to now is      111.6 secs

     total energy              =    -175.58438924 Ry
     estimated scf accuracy    <          2.0E-10 Ry

     iteration # 19     ecut=    60.00 Ry     beta= 0.70
     Davidson diagonalization with overlap
     ethr =  6.17E-13,  avg # of iterations =  4.4

     negative rho (up, down):  4.789E-04 0.000E+00

     total cpu time spent up to now is      117.5 secs

     End of self-consistent calculation

          k = 0.0000 0.0000 0.0000 ( 18047 PWs)   bands (ev):

   -26.1847 -24.9887 -23.7026 -21.3763 -14.5131 -12.6041 -11.6270 -10.6977
    -9.9507  -9.0227  -8.3157  -7.1488  -6.8736  -6.3931  -5.8820  -5.4725

          k =-0.0153 0.2863 0.0000 ( 18132 PWs)   bands (ev):

   -26.0888 -24.9562 -23.8827 -21.4481 -14.2154 -12.5639 -11.6102 -10.5821
    -9.7768  -9.2283  -8.4136  -7.3579  -7.2944  -6.2982  -6.1182  -5.4425

          k = 0.0307-0.5725 0.0000 ( 18166 PWs)   bands (ev):

   -25.9777 -24.9230 -24.0742 -21.5202 -13.9168 -12.4775 -11.5970 -10.3866
    -9.8318  -9.3406  -8.4348  -7.6901  -7.5812  -6.3210  -6.1887  -5.4527

          k = 0.2575-0.1328 0.0000 ( 18109 PWs)   bands (ev):

   -26.1544 -24.9689 -23.7468 -21.4082 -14.5156 -12.6518 -11.7803 -10.6086
    -9.7696  -9.0136  -8.2959  -7.5604  -6.8441  -6.4930  -5.6264  -5.4855

          k = 0.2421 0.1535 0.0000 ( 18132 PWs)   bands (ev):

   -26.0755 -24.9458 -23.9071 -21.4789 -14.1786 -12.5974 -11.3313 -10.5541
   -10.1060  -9.2195  -8.4048  -7.3326  -6.9774  -6.3638  -6.2767  -5.4540

          k = 0.2882-0.7053 0.0000 ( 18147 PWs)   bands (ev):

   -25.9621 -24.9123 -24.1003 -21.5508 -13.8859 -12.5026 -11.3779 -10.3616
    -9.9032  -9.5145  -8.4537  -7.6736  -7.3658  -6.3222  -6.2663  -5.4531

          k = 0.2728-0.4190 0.0000 ( 18128 PWs)   bands (ev):

   -26.0545 -24.9360 -23.9300 -21.4801 -14.2365 -12.5869 -11.7828 -10.4914
    -9.4796  -9.2116  -8.3475  -7.9468  -7.3777  -6.2726  -5.8053  -5.4139

          k =-0.5150 0.2656 0.0000 ( 18184 PWs)   bands (ev):

   -26.1230 -24.9488 -23.7919 -21.4402 -14.5181 -12.7032 -11.9117 -10.5377
    -9.5797  -9.0096  -8.2514  -7.8824  -6.7838  -6.5836  -5.5162  -5.4354

          k =-0.5303 0.5518 0.0000 ( 18128 PWs)   bands (ev):

   -26.0406 -24.9253 -23.9550 -21.5110 -14.1990 -12.6204 -11.5713 -10.4450
    -9.7906  -9.2406  -8.3718  -7.6256  -7.3545  -6.3110  -5.8798  -5.4344

          k =-0.4843-0.3070 0.0000 ( 18166 PWs)   bands (ev):

   -25.9459 -24.9014 -24.1271 -21.5817 -13.8480 -12.5337 -10.9774 -10.3627
   -10.2592  -9.5642  -8.4588  -7.7330  -7.0195  -6.5180  -6.2426  -5.4571

     highest occupied level (ev):    -5.4139

!    total energy              =    -175.58438924 Ry

     total all-electron energy =      -610.971934 Ry
     estimated scf accuracy    <          1.3E-11 Ry

     The total energy is the sum of the following terms:
     one-electron contribution =    -645.02919103 Ry
     hartree contribution      =     329.93241567 Ry
     xc contribution           =     -35.00119342 Ry
     ewald contribution        =     212.89111237 Ry
     one-center paw contrib.   =     -38.37753283 Ry

     convergence has been achieved in  19 iterations

     negative rho (up, down):  4.789E-04 0.000E+00

     Forces acting on atoms (cartesian axes, Ry/au):

     atom    1 type  1   force =    -0.48033815   -0.25457946   -0.13717221
     atom    2 type  1   force =    -0.01489243    0.02252514    0.16675422
     atom    3 type  1   force =     0.02522369   -0.10855659   -0.02197301
     atom    4 type  1   force =    -0.09963670   -0.10218528    0.25455066
     atom    5 type  1   force =    -0.05889720   -0.07291530   -0.07824438
     atom    6 type  1   force =    -0.08757717   -0.00063356   -0.05123098
     atom    7 type  1   force =    -0.13794999    0.15708866    0.06260398
     atom    8 type  1   force =     0.12622106   -0.04315238   -0.02302593
     atom    9 type  2   force =     0.58544307    0.22589474   -0.02358138
     atom   10 type  2   force =     0.02092009    0.07893165   -0.17254788
     atom   11 type  2   force =     0.19885244    0.20375782    0.05189457
     atom   12 type  2   force =    -0.07736870   -0.10617544   -0.02802766

     Total force =     1.031831     Total SCF correction =     0.000006

     BFGS Geometry Optimization
     Energy error            =      0.0E+00 Ry
     Gradient error          =      5.9E-01 Ry/Bohr

     number of scf cycles    =   1
     number of bfgs steps    =   0

     energy             new  =    -175.5843892418 Ry

     new trust radius        =       0.5000000000 bohr
     new conv_thr            =            1.0E-10 Ry


ATOMIC_POSITIONS (angstrom)
H             4.0074386224        3.7393272721       11.0364202644
H             5.1866307071        4.1746167813       10.0297370238
H             3.0128458293        1.3379576254        8.0893809396
H             3.2746659852        2.4970741040        9.0464886617
H             4.3688198078        3.7816033761        8.6787974926
H             6.2131227758        4.2572052686        8.3966547946
H             3.6101024763        1.6949518769       10.8246963493
H             1.8035790683        2.9173838131       11.2678772459
O             5.1472908846        4.2846873053       11.3672302807
O             3.6287049041        3.0032209730        8.1666465459
O             5.2927635932        4.4760023461        8.1401990033
O             3.0894217965        2.6540760163       10.9955574761



     Writing config-only to output data dir ./output/f-BH.save/
     NEW-OLD atomic charge density approx. for the potential

     negative rho (up, down):  4.551E-04 0.000E+00

     total cpu time spent up to now is      130.2 secs

     per-process dynamical memory:   210.2 Mb

     Self-consistent Calculation

     iteration #  1     ecut=    60.00 Ry     beta= 0.70
     Davidson diagonalization with overlap
     ethr =  1.00E-06,  avg # of iterations = 15.0

     negative rho (up, down):  4.654E-04 0.000E+00

     total cpu time spent up to now is      150.1 secs

     total energy              =    -175.77940834 Ry
     estimated scf accuracy    <       0.15865088 Ry

     iteration #  2     ecut=    60.00 Ry     beta= 0.70
     Davidson diagonalization with overlap
     ethr =  4.96E-04,  avg # of iterations =  5.0

     negative rho (up, down):  4.935E-04 0.000E+00

     total cpu time spent up to now is      157.0 secs

     total energy              =    -175.78322777 Ry
     estimated scf accuracy    <       0.25764841 Ry

     iteration #  3     ecut=    60.00 Ry     beta= 0.70
     Davidson diagonalization with overlap
     ethr =  4.96E-04,  avg # of iterations =  4.3

     negative rho (up, down):  4.765E-04 0.000E+00

     total cpu time spent up to now is      163.1 secs

     total energy              =    -175.83658569 Ry
     estimated scf accuracy    <       0.01191388 Ry

     iteration #  4     ecut=    60.00 Ry     beta= 0.70
     Davidson diagonalization with overlap
     ethr =  3.72E-05,  avg # of iterations =  4.4

     negative rho (up, down):  4.769E-04 0.000E+00

     total cpu time spent up to now is      169.6 secs

     total energy              =    -175.83974135 Ry
     estimated scf accuracy    <       0.00788377 Ry

     iteration #  5     ecut=    60.00 Ry     beta= 0.70
     Davidson diagonalization with overlap
     ethr =  2.46E-05,  avg # of iterations =  2.6

     negative rho (up, down):  4.767E-04 0.000E+00

     total cpu time spent up to now is      174.8 secs

     total energy              =    -175.84051203 Ry
     estimated scf accuracy    <       0.00081580 Ry

     iteration #  6     ecut=    60.00 Ry     beta= 0.70
     Davidson diagonalization with overlap
     ethr =  2.55E-06,  avg # of iterations =  4.8

     negative rho (up, down):  4.761E-04 0.000E+00

     total cpu time spent up to now is      181.3 secs

     total energy              =    -175.84087414 Ry
     estimated scf accuracy    <       0.00044735 Ry

     iteration #  7     ecut=    60.00 Ry     beta= 0.70
     Davidson diagonalization with overlap
     ethr =  1.40E-06,  avg # of iterations =  2.0

     negative rho (up, down):  4.764E-04 0.000E+00

     total cpu time spent up to now is      186.1 secs

     total energy              =    -175.84086435 Ry
     estimated scf accuracy    <       0.00011570 Ry

     iteration #  8     ecut=    60.00 Ry     beta= 0.70
     Davidson diagonalization with overlap
     ethr =  3.62E-07,  avg # of iterations =  3.6

     negative rho (up, down):  4.767E-04 0.000E+00

     total cpu time spent up to now is      192.0 secs

     total energy              =    -175.84090020 Ry
     estimated scf accuracy    <       0.00001438 Ry

     iteration #  9     ecut=    60.00 Ry     beta= 0.70
     Davidson diagonalization with overlap
     ethr =  4.49E-08,  avg # of iterations =  3.0

     negative rho (up, down):  4.768E-04 0.000E+00

     total cpu time spent up to now is      197.2 secs

     total energy              =    -175.84090111 Ry
     estimated scf accuracy    <       0.00000484 Ry

     iteration # 10     ecut=    60.00 Ry     beta= 0.70
     Davidson diagonalization with overlap
     ethr =  1.51E-08,  avg # of iterations =  3.1

     negative rho (up, down):  4.767E-04 0.000E+00

     total cpu time spent up to now is      202.3 secs

     total energy              =    -175.84090163 Ry
     estimated scf accuracy    <       0.00000088 Ry

     iteration # 11     ecut=    60.00 Ry     beta= 0.70
     Davidson diagonalization with overlap
     ethr =  2.76E-09,  avg # of iterations =  2.6

     negative rho (up, down):  4.767E-04 0.000E+00

     total cpu time spent up to now is      207.3 secs

     total energy              =    -175.84090173 Ry
     estimated scf accuracy    <       0.00000013 Ry

     iteration # 12     ecut=    60.00 Ry     beta= 0.70
     Davidson diagonalization with overlap
     ethr =  4.01E-10,  avg # of iterations =  3.7

     negative rho (up, down):  4.767E-04 0.000E+00

     total cpu time spent up to now is      212.9 secs

     total energy              =    -175.84090176 Ry
     estimated scf accuracy    <          4.0E-09 Ry

     iteration # 13     ecut=    60.00 Ry     beta= 0.70
     Davidson diagonalization with overlap
     ethr =  1.26E-11,  avg # of iterations =  5.4

     negative rho (up, down):  4.767E-04 0.000E+00

     total cpu time spent up to now is      220.3 secs

     total energy              =    -175.84090176 Ry
     estimated scf accuracy    <          1.2E-09 Ry

     iteration # 14     ecut=    60.00 Ry     beta= 0.70
     Davidson diagonalization with overlap
     ethr =  3.67E-12,  avg # of iterations =  2.3

     negative rho (up, down):  4.767E-04 0.000E+00

     total cpu time spent up to now is      225.2 secs

     total energy              =    -175.84090176 Ry
     estimated scf accuracy    <          3.6E-10 Ry

     iteration # 15     ecut=    60.00 Ry     beta= 0.70
     Davidson diagonalization with overlap
     ethr =  1.12E-12,  avg # of iterations =  4.0

     negative rho (up, down):  4.767E-04 0.000E+00

     total cpu time spent up to now is      230.7 secs

     End of self-consistent calculation

          k = 0.0000 0.0000 0.0000 ( 18047 PWs)   bands (ev):

   -26.0568 -23.5007 -22.4984 -21.9028 -13.7120 -13.1864 -11.5698 -10.8202
   -10.2992  -8.6575  -7.9153  -7.0397  -6.7004  -6.3132  -6.2642  -5.9623

          k =-0.0153 0.2863 0.0000 ( 18132 PWs)   bands (ev):

   -26.0002 -23.3633 -22.6222 -22.1134 -13.7441 -12.7930 -11.5388 -10.6830
   -10.0783  -8.8342  -8.0636  -7.2426  -7.1338  -6.5516  -6.2227  -5.8737

          k = 0.0307-0.5725 0.0000 ( 18166 PWs)   bands (ev):

   -25.9400 -23.1859 -22.6927 -22.4161 -13.7712 -12.3425 -11.5555 -10.4506
    -9.7018  -9.2768  -8.1749  -7.6586  -7.4902  -6.4340  -6.2535  -5.8599

          k = 0.2575-0.1328 0.0000 ( 18109 PWs)   bands (ev):

   -26.0349 -23.4131 -22.5320 -22.0236 -13.7758 -13.1372 -11.7391 -10.6647
   -10.1367  -8.6849  -7.9142  -7.4166  -6.7122  -6.3665  -6.0724  -5.9577

          k = 0.2421 0.1535 0.0000 ( 18132 PWs)   bands (ev):

   -25.9945 -23.3555 -22.6395 -22.1217 -13.6962 -12.8274 -11.5980 -10.5638
   -10.0723  -8.8330  -8.0346  -7.3265  -7.1307  -6.5844  -6.2029  -5.8556

          k = 0.2882-0.7053 0.0000 ( 18147 PWs)   bands (ev):

   -25.9339 -23.1755 -22.7087 -22.4280 -13.7447 -12.3563 -11.6324 -10.3073
    -9.6462  -9.2767  -8.1459  -7.7560  -7.5205  -6.5323  -6.1812  -5.8165

          k = 0.2728-0.4190 0.0000 ( 18128 PWs)   bands (ev):

   -25.9770 -23.2496 -22.6408 -22.2746 -13.8157 -12.7296 -11.7518 -10.4865
    -9.8030  -8.8962  -8.0539  -7.7495  -7.2290  -6.4098  -6.0031  -5.8615

          k =-0.5150 0.2656 0.0000 ( 18184 PWs)   bands (ev):

   -26.0125 -23.3101 -22.5609 -22.1642 -13.8317 -13.0992 -11.8754 -10.5505
    -9.9522  -8.7222  -7.9190  -7.6656  -6.7117  -6.4219  -6.0626  -5.8105

          k =-0.5303 0.5518 0.0000 ( 18128 PWs)   bands (ev):

   -25.9712 -23.2397 -22.6590 -22.2843 -13.7724 -12.7602 -11.7843 -10.4114
    -9.7687  -8.8989  -8.0077  -7.8381  -7.2263  -6.4454  -6.0047  -5.8326

          k =-0.4843-0.3070 0.0000 ( 18166 PWs)   bands (ev):

   -25.9277 -23.1642 -22.7240 -22.4422 -13.7095 -12.3794 -11.6414 -10.2450
    -9.6215  -9.3003  -8.1118  -7.7830  -7.5379  -6.6161  -6.1589  -5.7838

     highest occupied level (ev):    -5.7838

!    total energy              =    -175.84090176 Ry

     total all-electron energy =      -611.228447 Ry
     estimated scf accuracy    <          8.4E-11 Ry

     The total energy is the sum of the following terms:
     one-electron contribution =    -640.60959652 Ry
     hartree contribution      =     327.76087160 Ry
     xc contribution           =     -34.78821499 Ry
     ewald contribution        =     210.16575098 Ry
     one-center paw contrib.   =     -38.36971284 Ry

     convergence has been achieved in  15 iterations

     negative rho (up, down):  4.767E-04 0.000E+00

     Forces acting on atoms (cartesian axes, Ry/au):

     atom    1 type  1   force =     0.03980680   -0.03279976    0.06521340
     atom    2 type  1   force =     0.01227454    0.03014782    0.17850744
     atom    3 type  1   force =     0.03931496   -0.07208260   -0.01416217
     atom    4 type  1   force =     0.03068674    0.07892810   -0.06899782
     atom    5 type  1   force =    -0.06700958   -0.07789239   -0.09725510
     atom    6 type  1   force =     0.02804459    0.00477329   -0.02161619
     atom    7 type  1   force =    -0.10713489    0.09142631    0.06104669
     atom    8 type  1   force =     0.09501267   -0.00678374   -0.01806673
     atom    9 type  2   force =    -0.01819824   -0.10169817   -0.24914090
     atom   10 type  2   force =    -0.06347771   -0.05440338    0.16028967
     atom   11 type  2   force =     0.03118746    0.12270812    0.02438819
     atom   12 type  2   force =    -0.02050732    0.01767641   -0.02020648

     Total force =     0.485963     Total SCF correction =     0.000014
     Energy error            =      2.6E-01 Ry
     Gradient error          =      2.5E-01 Ry/Bohr

     number of scf cycles    =   2
     number of bfgs steps    =   1

     energy             old  =    -175.5843892418 Ry
     energy             new  =    -175.8409017645 Ry

     CASE: energy            _new < energy            _old

     new trust radius        =       0.2891363440 bohr
     new conv_thr            =            1.0E-10 Ry


ATOMIC_POSITIONS (angstrom)
H             3.9712990984        3.6909872218       11.0552577930
H             5.1914887253        4.1936477757       10.1464304957
H             3.0371650761        1.2858848482        8.0790726834
H             3.2793154525        2.5275407323        9.0397006325
H             4.3254589261        3.7306655522        8.6167344269
H             6.2177900060        4.2597139611        8.3787958042
H             3.5355178968        1.7633288924       10.8652734911
H             1.8701905064        2.9085271255       11.2553281535
O             5.2077562861        4.2567496608       11.2294850134
O             3.5968437531        2.9832416892        8.2327199067
O             5.3335369618        4.5669244631        8.1596387739
O             3.0690237621        2.6508948357       10.9812489036



     Writing config-only to output data dir ./output/f-BH.save/
     NEW-OLD atomic charge density approx. for the potential

     negative rho (up, down):  4.538E-04 0.000E+00

     total cpu time spent up to now is      243.6 secs

     per-process dynamical memory:   210.2 Mb

     Self-consistent Calculation

     iteration #  1     ecut=    60.00 Ry     beta= 0.70
     Davidson diagonalization with overlap
     ethr =  1.00E-06,  avg # of iterations = 12.0

     negative rho (up, down):  4.965E-04 0.000E+00

     total cpu time spent up to now is      261.2 secs

     total energy              =    -175.99826346 Ry
     estimated scf accuracy    <       0.07159450 Ry

     iteration #  2     ecut=    60.00 Ry     beta= 0.70
     Davidson diagonalization with overlap
     ethr =  2.24E-04,  avg # of iterations =  5.0

     negative rho (up, down):  4.844E-04 0.000E+00

     total cpu time spent up to now is      268.0 secs

     total energy              =    -176.00851687 Ry
     estimated scf accuracy    <       0.08711280 Ry

     iteration #  3     ecut=    60.00 Ry     beta= 0.70
     Davidson diagonalization with overlap
     ethr =  2.24E-04,  avg # of iterations =  4.0

     negative rho (up, down):  4.864E-04 0.000E+00

     total cpu time spent up to now is      273.5 secs

     total energy              =    -176.02543180 Ry
     estimated scf accuracy    <       0.00830125 Ry

     iteration #  4     ecut=    60.00 Ry     beta= 0.70
     Davidson diagonalization with overlap
     ethr =  2.59E-05,  avg # of iterations =  3.5

     negative rho (up, down):  4.874E-04 0.000E+00

     total cpu time spent up to now is      279.3 secs

     total energy              =    -176.02788404 Ry
     estimated scf accuracy    <       0.00070352 Ry

     iteration #  5     ecut=    60.00 Ry     beta= 0.70
     Davidson diagonalization with overlap
     ethr =  2.20E-06,  avg # of iterations =  2.6

     negative rho (up, down):  4.878E-04 0.000E+00

     total cpu time spent up to now is      284.8 secs

     total energy              =    -176.02801458 Ry
     estimated scf accuracy    <       0.00009693 Ry

     iteration #  6     ecut=    60.00 Ry     beta= 0.70
     Davidson diagonalization with overlap
     ethr =  3.03E-07,  avg # of iterations =  2.3

     negative rho (up, down):  4.878E-04 0.000E+00

     total cpu time spent up to now is      290.3 secs

     total energy              =    -176.02803261 Ry
     estimated scf accuracy    <       0.00000969 Ry

     iteration #  7     ecut=    60.00 Ry     beta= 0.70
     Davidson diagonalization with overlap
     ethr =  3.03E-08,  avg # of iterations =  3.4

     negative rho (up, down):  4.877E-04 0.000E+00

     total cpu time spent up to now is      296.4 secs

     total energy              =    -176.02803594 Ry
     estimated scf accuracy    <       0.00000066 Ry

     iteration #  8     ecut=    60.00 Ry     beta= 0.70
     Davidson diagonalization with overlap
     ethr =  2.07E-09,  avg # of iterations =  3.4

     negative rho (up, down):  4.877E-04 0.000E+00

     total cpu time spent up to now is      302.3 secs

     total energy              =    -176.02803609 Ry
     estimated scf accuracy    <       0.00000010 Ry

     iteration #  9     ecut=    60.00 Ry     beta= 0.70
     Davidson diagonalization with overlap
     ethr =  3.28E-10,  avg # of iterations =  2.8

     negative rho (up, down):  4.877E-04 0.000E+00

     total cpu time spent up to now is      308.0 secs

     total energy              =    -176.02803612 Ry
     estimated scf accuracy    <          9.0E-09 Ry

     iteration # 10     ecut=    60.00 Ry     beta= 0.70
     Davidson diagonalization with overlap
     ethr =  2.82E-11,  avg # of iterations =  3.5

     negative rho (up, down):  4.877E-04 0.000E+00

     total cpu time spent up to now is      314.0 secs

     total energy              =    -176.02803612 Ry
     estimated scf accuracy    <          1.1E-09 Ry

     iteration # 11     ecut=    60.00 Ry     beta= 0.70
     Davidson diagonalization with overlap
     ethr =  3.45E-12,  avg # of iterations =  2.6

     negative rho (up, down):  4.877E-04 0.000E+00

     total cpu time spent up to now is      319.8 secs

     End of self-consistent calculation

          k = 0.0000 0.0000 0.0000 ( 18047 PWs)   bands (ev):

   -25.9623 -24.3619 -23.1658 -22.6214 -14.2601 -12.6833 -12.4948 -11.1664
   -10.2497  -8.9259  -7.6243  -7.2016  -7.0148  -6.6586  -6.5061  -6.0614

          k =-0.0153 0.2863 0.0000 ( 18132 PWs)   bands (ev):

   -25.8907 -24.2539 -23.2916 -22.7989 -14.1855 -12.4885 -12.3732 -11.0382
   -10.1370  -9.0423  -7.8437  -7.4311  -7.2069  -6.7592  -6.5806  -6.0015

          k = 0.0307-0.5725 0.0000 ( 18166 PWs)   bands (ev):

   -25.8120 -24.1264 -23.3968 -23.0201 -14.1332 -12.4093 -12.0876 -10.8418
    -9.9736  -9.3022  -8.0894  -7.6785  -7.5010  -6.6940  -6.5566  -5.9715

          k = 0.2575-0.1328 0.0000 ( 18109 PWs)   bands (ev):

   -25.9374 -24.2841 -23.1960 -22.7368 -14.3068 -12.7123 -12.4885 -11.0297
   -10.1918  -8.9350  -7.6240  -7.4897  -7.1117  -6.7192  -6.2840  -6.0728

          k = 0.2421 0.1535 0.0000 ( 18132 PWs)   bands (ev):

   -25.8894 -24.2526 -23.2996 -22.7929 -14.1899 -12.5858 -12.3933 -10.8696
   -10.1207  -9.0226  -7.8263  -7.4486  -7.3380  -6.8132  -6.4799  -5.9804

          k = 0.2882-0.7053 0.0000 ( 18147 PWs)   bands (ev):

   -25.8106 -24.1243 -23.4090 -23.0107 -14.1389 -12.5344 -12.0957 -10.6378
    -9.9459  -9.2718  -8.0964  -7.7618  -7.5280  -6.8183  -6.4321  -5.9437

          k = 0.2728-0.4190 0.0000 ( 18128 PWs)   bands (ev):

   -25.8637 -24.1604 -23.3127 -22.9397 -14.2416 -12.5922 -12.3142 -10.8245
   -10.0668  -9.0645  -7.8464  -7.7505  -7.3922  -6.7770  -6.2528  -5.9935

          k =-0.5150 0.2656 0.0000 ( 18184 PWs)   bands (ev):

   -25.9118 -24.1952 -23.2218 -22.8676 -14.3523 -12.7560 -12.4763 -10.8761
   -10.1405  -8.9456  -7.7365  -7.6122  -7.1461  -6.7815  -6.1400  -6.0390

          k =-0.5303 0.5518 0.0000 ( 18128 PWs)   bands (ev):

   -25.8623 -24.1587 -23.3235 -22.9314 -14.2457 -12.6739 -12.3333 -10.6605
   -10.0578  -9.0420  -7.9171  -7.7344  -7.4257  -6.8227  -6.2098  -5.9695

          k =-0.4843-0.3070 0.0000 ( 18166 PWs)   bands (ev):

   -25.8091 -24.1217 -23.4208 -23.0025 -14.1402 -12.6083 -12.1118 -10.5180
    -9.9162  -9.2427  -8.0985  -7.8012  -7.5460  -6.8861  -6.3990  -5.9272

     highest occupied level (ev):    -5.9272

!    total energy              =    -176.02803612 Ry

     total all-electron energy =      -611.415581 Ry
     estimated scf accuracy    <          7.2E-11 Ry

     The total energy is the sum of the following terms:
     one-electron contribution =    -656.37506340 Ry
     hartree contribution      =     335.60437864 Ry
     xc contribution           =     -35.24709319 Ry
     ewald contribution        =     218.34845788 Ry
     one-center paw contrib.   =     -38.35871605 Ry

     convergence has been achieved in  11 iterations

     negative rho (up, down):  4.877E-04 0.000E+00

     Forces acting on atoms (cartesian axes, Ry/au):

     atom    1 type  1   force =     0.03896147   -0.03796876    0.04547354
     atom    2 type  1   force =     0.02207066    0.01929867    0.11542667
     atom    3 type  1   force =     0.02158883    0.11481913   -0.02786984
     atom    4 type  1   force =     0.00017434    0.02628820    0.01483362
     atom    5 type  1   force =    -0.06135524   -0.06452930   -0.07747654
     atom    6 type  1   force =     0.04974423    0.01242774   -0.01656549
     atom    7 type  1   force =    -0.05920748    0.00877002    0.04470257
     atom    8 type  1   force =     0.09627874   -0.01000663   -0.02526624
     atom    9 type  2   force =    -0.04561643   -0.08952166   -0.16176356
     atom   10 type  2   force =     0.00139200    0.03010065    0.05202066
     atom   11 type  2   force =    -0.01090507   -0.11527132    0.02800054
     atom   12 type  2   force =    -0.05312605    0.10559327    0.00848406

     Total force =     0.367535     Total SCF correction =     0.000019
     Energy error            =      1.9E-01 Ry
     Gradient error          =      1.6E-01 Ry/Bohr

     number of scf cycles    =   3
     number of bfgs steps    =   2

     energy             old  =    -175.8409017645 Ry
     energy             new  =    -176.0280361231 Ry

     CASE: energy            _new < energy            _old

     new trust radius        =       0.5336464429 bohr
     new conv_thr            =            1.0E-10 Ry


ATOMIC_POSITIONS (angstrom)
H             3.9271419405        3.5915456520       11.0976649093
H             5.2133559582        4.2290388819       10.3636965325
H             3.0793878761        1.3295142788        8.0438900415
H             3.2738558082        2.5668298379        9.0712840780
H             4.2290502253        3.6235785413        8.4882763089
H             6.2563953763        4.2725807826        8.3440073441
H             3.4062177676        1.8454619789       10.9452192521
H             2.0235057193        2.8880070990       11.2203512623
O             5.2774416557        4.1769287071       10.9677242945
O             3.5724232577        2.9995838264        8.3183586676
O             5.3787372807        4.5658342508        8.2057556056
O             2.9978735852        2.7292029213       10.9734577815



     Writing config-only to output data dir ./output/f-BH.save/
     NEW-OLD atomic charge density approx. for the potential

     negative rho (up, down):  4.888E-04 0.000E+00

     total cpu time spent up to now is      332.6 secs

     per-process dynamical memory:   210.2 Mb

     Self-consistent Calculation

     iteration #  1     ecut=    60.00 Ry     beta= 0.70
     Davidson diagonalization with overlap
     ethr =  1.00E-06,  avg # of iterations = 12.8

     negative rho (up, down):  5.515E-04 0.000E+00

     total cpu time spent up to now is      350.3 secs

     total energy              =    -175.20200550 Ry
     estimated scf accuracy    <       0.57184663 Ry

     iteration #  2     ecut=    60.00 Ry     beta= 0.70
     Davidson diagonalization with overlap
     ethr =  1.79E-03,  avg # of iterations =  4.7

     negative rho (up, down):  5.403E-04 0.000E+00

     total cpu time spent up to now is      356.0 secs

     total energy              =    -175.24676591 Ry
     estimated scf accuracy    <       0.93875626 Ry

     iteration #  3     ecut=    60.00 Ry     beta= 0.70
     Davidson diagonalization with overlap
     ethr =  1.79E-03,  avg # of iterations =  4.0

     negative rho (up, down):  5.181E-04 0.000E+00

     total cpu time spent up to now is      361.4 secs

     total energy              =    -175.45531562 Ry
     estimated scf accuracy    <       0.02163665 Ry

     iteration #  4     ecut=    60.00 Ry     beta= 0.70
     Davidson diagonalization with overlap
     ethr =  6.76E-05,  avg # of iterations =  2.9

     negative rho (up, down):  5.275E-04 0.000E+00

     total cpu time spent up to now is      366.8 secs

     total energy              =    -175.45912790 Ry
     estimated scf accuracy    <       0.00174133 Ry

     iteration #  5     ecut=    60.00 Ry     beta= 0.70
     Davidson diagonalization with overlap
     ethr =  5.44E-06,  avg # of iterations =  3.6

     negative rho (up, down):  5.321E-04 0.000E+00

     total cpu time spent up to now is      372.3 secs

     total energy              =    -175.45957633 Ry
     estimated scf accuracy    <       0.00011025 Ry

     iteration #  6     ecut=    60.00 Ry     beta= 0.70
     Davidson diagonalization with overlap
     ethr =  3.45E-07,  avg # of iterations =  3.3

     negative rho (up, down):  5.323E-04 0.000E+00

     total cpu time spent up to now is      377.8 secs

     total energy              =    -175.45960279 Ry
     estimated scf accuracy    <       0.00003158 Ry

     iteration #  7     ecut=    60.00 Ry     beta= 0.70
     Davidson diagonalization with overlap
     ethr =  9.87E-08,  avg # of iterations =  2.3

     negative rho (up, down):  5.322E-04 0.000E+00

     total cpu time spent up to now is      383.1 secs

     total energy              =    -175.45960598 Ry
     estimated scf accuracy    <       0.00000450 Ry

     iteration #  8     ecut=    60.00 Ry     beta= 0.70
     Davidson diagonalization with overlap
     ethr =  1.41E-08,  avg # of iterations =  3.7

     negative rho (up, down):  5.323E-04 0.000E+00

     total cpu time spent up to now is      389.1 secs

     total energy              =    -175.45960682 Ry
     estimated scf accuracy    <       0.00000147 Ry

     iteration #  9     ecut=    60.00 Ry     beta= 0.70
     Davidson diagonalization with overlap
     ethr =  4.61E-09,  avg # of iterations =  3.0

     negative rho (up, down):  5.324E-04 0.000E+00

     total cpu time spent up to now is      394.5 secs

     total energy              =    -175.45960722 Ry
     estimated scf accuracy    <       0.00000008 Ry

     iteration # 10     ecut=    60.00 Ry     beta= 0.70
     Davidson diagonalization with overlap
     ethr =  2.65E-10,  avg # of iterations =  2.0

     negative rho (up, down):  5.324E-04 0.000E+00

     total cpu time spent up to now is      399.7 secs

     total energy              =    -175.45960723 Ry
     estimated scf accuracy    <       0.00000002 Ry

     iteration # 11     ecut=    60.00 Ry     beta= 0.70
     Davidson diagonalization with overlap
     ethr =  5.44E-11,  avg # of iterations =  4.0

     negative rho (up, down):  5.324E-04 0.000E+00

     total cpu time spent up to now is      405.3 secs

     total energy              =    -175.45960723 Ry
     estimated scf accuracy    <          1.0E-09 Ry

     iteration # 12     ecut=    60.00 Ry     beta= 0.70
     Davidson diagonalization with overlap
     ethr =  3.12E-12,  avg # of iterations =  2.9

     negative rho (up, down):  5.324E-04 0.000E+00

     total cpu time spent up to now is      410.6 secs

     End of self-consistent calculation

          k = 0.0000 0.0000 0.0000 ( 18047 PWs)   bands (ev):

   -26.6865 -25.5599 -25.1069 -23.8013 -14.2118 -13.6498 -12.6463 -12.3286
   -10.3252  -9.0310  -7.8843  -7.0079  -6.9239  -6.4596  -6.3739  -6.2471

          k =-0.0153 0.2863 0.0000 ( 18132 PWs)   bands (ev):

   -26.6003 -25.6629 -24.9522 -24.0098 -14.2208 -13.6117 -12.4796 -12.3013
   -10.2068  -8.9763  -8.0274  -7.3642  -6.9793  -6.5010  -6.4292  -6.1274

          k = 0.0307-0.5725 0.0000 ( 18166 PWs)   bands (ev):

   -26.4899 -25.7907 -24.6552 -24.3586 -14.2342 -13.5881 -12.3219 -12.2247
   -10.0778  -8.8540  -8.3665  -7.5371  -7.0876  -6.5355  -6.4264  -6.0559

          k = 0.2575-0.1328 0.0000 ( 18109 PWs)   bands (ev):

   -26.6048 -25.6589 -25.0528 -23.8659 -14.2157 -13.7163 -12.5830 -12.3826
   -10.1837  -9.0057  -7.8642  -7.1049  -7.0360  -6.5017  -6.3405  -6.2199

          k = 0.2421 0.1535 0.0000 ( 18132 PWs)   bands (ev):

   -26.5936 -25.6716 -24.9416 -24.0226 -14.2413 -13.5326 -12.5774 -12.3166
   -10.1175  -8.9446  -7.9622  -7.3797  -7.1548  -6.5167  -6.3146  -6.1185

          k = 0.2882-0.7053 0.0000 ( 18147 PWs)   bands (ev):

   -26.4808 -25.8015 -24.6163 -24.3998 -14.2565 -13.5225 -12.3855 -12.2661
    -9.9692  -8.8106  -8.3056  -7.5727  -7.2527  -6.5804  -6.2922  -6.0377

          k = 0.2728-0.4190 0.0000 ( 18128 PWs)   bands (ev):

   -26.4961 -25.7845 -24.8722 -24.0997 -14.2284 -13.6881 -12.4082 -12.3466
   -10.0447  -8.9472  -8.0273  -7.4324  -7.1598  -6.5546  -6.3140  -6.0821

          k =-0.5150 0.2656 0.0000 ( 18184 PWs)   bands (ev):

   -26.5021 -25.7787 -24.9925 -23.9368 -14.2217 -13.7761 -12.5277 -12.4331
   -10.0351  -8.9808  -7.8337  -7.2278  -7.1628  -6.5060  -6.2845  -6.1733

          k =-0.5303 0.5518 0.0000 ( 18128 PWs)   bands (ev):

   -26.4871 -25.7954 -24.8593 -24.1150 -14.2487 -13.6197 -12.4922 -12.3628
    -9.9570  -8.9127  -7.9492  -7.4593  -7.3061  -6.5633  -6.2307  -6.0813

          k =-0.4843-0.3070 0.0000 ( 18166 PWs)   bands (ev):

   -26.4712 -25.8130 -24.5444 -24.4742 -14.2720 -13.4417 -12.4788 -12.2940
    -9.8823  -8.7753  -8.2262  -7.6106  -7.3589  -6.6100  -6.2254  -6.0353

     highest occupied level (ev):    -6.0353

!    total energy              =    -175.45960723 Ry

     total all-electron energy =      -610.847152 Ry
     estimated scf accuracy    <          1.9E-11 Ry

     The total energy is the sum of the following terms:
     one-electron contribution =    -683.48826381 Ry
     hartree contribution      =     349.21259885 Ry
     xc contribution           =     -36.14742826 Ry
     ewald contribution        =     233.32663636 Ry
     one-center paw contrib.   =     -38.36315038 Ry

     convergence has been achieved in  12 iterations

     negative rho (up, down):  5.324E-04 0.000E+00

     Forces acting on atoms (cartesian axes, Ry/au):

     atom    1 type  1   force =     0.03239714   -0.01650351    0.00296544
     atom    2 type  1   force =    -0.29874733    0.26299412   -3.05923926
     atom    3 type  1   force =     0.04308555   -0.01143811   -0.02043339
     atom    4 type  1   force =    -0.02729890   -0.02535490    0.11358110
     atom    5 type  1   force =     0.11087937    0.09616413    0.01557821
     atom    6 type  1   force =     0.09279313   -0.00125575   -0.00644785
     atom    7 type  1   force =    -0.02426359   -0.05460624    0.03044705
     atom    8 type  1   force =     0.00044626    0.01285981   -0.00770342
     atom    9 type  2   force =     0.23566862   -0.30243786    3.05978137
     atom   10 type  2   force =    -0.12845206   -0.07338072   -0.13647562
     atom   11 type  2   force =    -0.08892080    0.02252337    0.00007710
     atom   12 type  2   force =     0.05241260    0.09043565    0.00786929

     Total force =     4.374897     Total SCF correction =     0.000005
     Energy error            =      5.7E-01 Ry
     Gradient error          =      3.1E+00 Ry/Bohr

     number of scf cycles    =   4
     number of bfgs steps    =   3

     energy             old  =    -176.0280361231 Ry
     energy             new  =    -175.4596072308 Ry

     CASE: energy            _new > energy            _old

     new trust radius        =       0.0911193661 bohr
     new conv_thr            =            1.0E-10 Ry


ATOMIC_POSITIONS (angstrom)
H             3.9637593269        3.6740077161       11.0624987474
H             5.1952225240        4.1996907564       10.1835283604
H             3.0443745588        1.2933345110        8.0730652977
H             3.2783832261        2.5342492909        9.0450934606
H             4.3089972785        3.7123805984        8.5948003872
H             6.2243818177        4.2619109525        8.3728557244
H             3.5134400848        1.7773529994       10.8789241153
H             1.8963688595        2.9050233604       11.2493558994
O             5.2196549632        4.2431203472       11.1847897454
O             3.5926739885        2.9860320858        8.2473426025
O             5.3412548516        4.5667383109        8.1675131569
O             3.0568749712        2.6642658292       10.9799185806



     Writing config-only to output data dir ./output/f-BH.save/
     NEW-OLD atomic charge density approx. for the potential

     negative rho (up, down):  4.657E-04 0.000E+00

     total cpu time spent up to now is      423.3 secs

     per-process dynamical memory:   210.2 Mb

     Self-consistent Calculation

     iteration #  1     ecut=    60.00 Ry     beta= 0.70
     Davidson diagonalization with overlap
     ethr =  1.00E-06,  avg # of iterations = 12.7

     negative rho (up, down):  4.526E-04 0.000E+00

     total cpu time spent up to now is      440.3 secs

     total energy              =    -175.93965901 Ry
     estimated scf accuracy    <       0.32169415 Ry

     iteration #  2     ecut=    60.00 Ry     beta= 0.70
     Davidson diagonalization with overlap
     ethr =  1.01E-03,  avg # of iterations =  4.7

     negative rho (up, down):  5.134E-04 0.000E+00

     total cpu time spent up to now is      446.5 secs

     total energy              =    -175.98142202 Ry
     estimated scf accuracy    <       0.40699232 Ry

     iteration #  3     ecut=    60.00 Ry     beta= 0.70
     Davidson diagonalization with overlap
     ethr =  1.01E-03,  avg # of iterations =  4.0

     negative rho (up, down):  4.917E-04 0.000E+00

     total cpu time spent up to now is      451.8 secs

     total energy              =    -176.06695837 Ry
     estimated scf accuracy    <       0.01096979 Ry

     iteration #  4     ecut=    60.00 Ry     beta= 0.70
     Davidson diagonalization with overlap
     ethr =  3.43E-05,  avg # of iterations =  3.7

     negative rho (up, down):  4.898E-04 0.000E+00

     total cpu time spent up to now is      457.2 secs

     total energy              =    -176.06968549 Ry
     estimated scf accuracy    <       0.00100727 Ry

     iteration #  5     ecut=    60.00 Ry     beta= 0.70
     Davidson diagonalization with overlap
     ethr =  3.15E-06,  avg # of iterations =  3.0

     negative rho (up, down):  4.906E-04 0.000E+00

     total cpu time spent up to now is      462.8 secs

     total energy              =    -176.06995174 Ry
     estimated scf accuracy    <       0.00010803 Ry

     iteration #  6     ecut=    60.00 Ry     beta= 0.70
     Davidson diagonalization with overlap
     ethr =  3.38E-07,  avg # of iterations =  3.1

     negative rho (up, down):  4.908E-04 0.000E+00

     total cpu time spent up to now is      468.4 secs

     total energy              =    -176.06997649 Ry
     estimated scf accuracy    <       0.00000709 Ry

     iteration #  7     ecut=    60.00 Ry     beta= 0.70
     Davidson diagonalization with overlap
     ethr =  2.22E-08,  avg # of iterations =  2.8

     negative rho (up, down):  4.907E-04 0.000E+00

     total cpu time spent up to now is      474.1 secs

     total energy              =    -176.06997795 Ry
     estimated scf accuracy    <       0.00000152 Ry

     iteration #  8     ecut=    60.00 Ry     beta= 0.70
     Davidson diagonalization with overlap
     ethr =  4.74E-09,  avg # of iterations =  2.6

     negative rho (up, down):  4.907E-04 0.000E+00

     total cpu time spent up to now is      479.4 secs

     total energy              =    -176.06997828 Ry
     estimated scf accuracy    <       0.00000008 Ry

     iteration #  9     ecut=    60.00 Ry     beta= 0.70
     Davidson diagonalization with overlap
     ethr =  2.44E-10,  avg # of iterations =  4.7

     negative rho (up, down):  4.907E-04 0.000E+00

     total cpu time spent up to now is      486.1 secs

     total energy              =    -176.06997830 Ry
     estimated scf accuracy    <       0.00000005 Ry

     iteration # 10     ecut=    60.00 Ry     beta= 0.70
     Davidson diagonalization with overlap
     ethr =  1.53E-10,  avg # of iterations =  2.2

     negative rho (up, down):  4.907E-04 0.000E+00

     total cpu time spent up to now is      491.2 secs

     total energy              =    -176.06997831 Ry
     estimated scf accuracy    <          2.4E-09 Ry

     iteration # 11     ecut=    60.00 Ry     beta= 0.70
     Davidson diagonalization with overlap
     ethr =  7.51E-12,  avg # of iterations =  5.4

     negative rho (up, down):  4.907E-04 0.000E+00

     total cpu time spent up to now is      498.8 secs

     total energy              =    -176.06997831 Ry
     estimated scf accuracy    <          4.8E-09 Ry

     iteration # 12     ecut=    60.00 Ry     beta= 0.70
     Davidson diagonalization with overlap
     ethr =  7.51E-12,  avg # of iterations =  3.4

     negative rho (up, down):  4.907E-04 0.000E+00

     total cpu time spent up to now is      504.1 secs

     total energy              =    -176.06997831 Ry
     estimated scf accuracy    <          3.8E-10 Ry

     iteration # 13     ecut=    60.00 Ry     beta= 0.70
     Davidson diagonalization with overlap
     ethr =  1.18E-12,  avg # of iterations =  4.5

     negative rho (up, down):  4.907E-04 0.000E+00

     total cpu time spent up to now is      510.5 secs

     End of self-consistent calculation

          k = 0.0000 0.0000 0.0000 ( 18047 PWs)   bands (ev):

   -25.7552 -24.6200 -23.3291 -22.9402 -14.0704 -12.8039 -12.6274 -11.3558
   -10.2733  -8.9657  -7.4773  -7.2659  -7.0454  -6.7198  -6.5395  -6.1062

          k =-0.0153 0.2863 0.0000 ( 18132 PWs)   bands (ev):

   -25.6690 -24.5169 -23.4655 -23.1094 -14.0050 -12.7394 -12.3934 -11.2289
   -10.1747  -9.0542  -7.7819  -7.4485  -7.1785  -6.7994  -6.6349  -6.0376

          k = 0.0307-0.5725 0.0000 ( 18166 PWs)   bands (ev):

   -25.5705 -24.3960 -23.5827 -23.3245 -13.9628 -12.7028 -12.0742 -11.0548
   -10.0425  -9.2536  -8.1080  -7.6527  -7.3984  -6.7946  -6.5732  -6.0006

          k = 0.2575-0.1328 0.0000 ( 18109 PWs)   bands (ev):

   -25.7249 -24.5404 -23.3650 -23.0574 -14.1227 -12.8593 -12.5597 -11.2627
   -10.2104  -8.9658  -7.4960  -7.4368  -7.2051  -6.7896  -6.3408  -6.1144

          k = 0.2421 0.1535 0.0000 ( 18132 PWs)   bands (ev):

   -25.6670 -24.5142 -23.4761 -23.1040 -14.0020 -12.8312 -12.4109 -11.0948
   -10.1461  -9.0284  -7.7668  -7.4546  -7.3216  -6.8782  -6.4961  -6.0191

          k = 0.2882-0.7053 0.0000 ( 18147 PWs)   bands (ev):

   -25.5683 -24.3922 -23.5988 -23.3148 -13.9621 -12.8049 -12.0959 -10.8966
    -9.9984  -9.2118  -8.1114  -7.7527  -7.4108  -6.9126  -6.4461  -5.9747

          k = 0.2728-0.4190 0.0000 ( 18128 PWs)   bands (ev):

   -25.6352 -24.4210 -23.4908 -23.2555 -14.0673 -12.8148 -12.3197 -11.0787
   -10.0988  -9.0623  -7.7960  -7.7090  -7.3566  -6.8697  -6.3060  -6.0245

          k =-0.5150 0.2656 0.0000 ( 18184 PWs)   bands (ev):

   -25.6937 -24.4482 -23.3956 -23.1928 -14.1732 -12.9085 -12.5118 -11.1546
   -10.1484  -8.9663  -7.6866  -7.4571  -7.2435  -6.8635  -6.1956  -6.0878

          k =-0.5303 0.5518 0.0000 ( 18128 PWs)   bands (ev):

   -25.6331 -24.4177 -23.5062 -23.2462 -14.0646 -12.8925 -12.3411 -10.9509
   -10.0717  -9.0326  -7.8665  -7.6905  -7.3837  -6.9274  -6.2465  -6.0049

          k =-0.4843-0.3070 0.0000 ( 18166 PWs)   bands (ev):

   -25.5659 -24.3879 -23.6141 -23.3069 -13.9563 -12.8680 -12.1237 -10.8049
    -9.9566  -9.1699  -8.1103  -7.8115  -7.4108  -6.9855  -6.4027  -5.9606

     highest occupied level (ev):    -5.9606

!    total energy              =    -176.06997831 Ry

     total all-electron energy =      -611.457523 Ry
     estimated scf accuracy    <          7.3E-11 Ry

     The total energy is the sum of the following terms:
     one-electron contribution =    -660.74189551 Ry
     hartree contribution      =     337.79445822 Ry
     xc contribution           =     -35.36364969 Ry
     ewald contribution        =     220.59742586 Ry
     one-center paw contrib.   =     -38.35631720 Ry

     convergence has been achieved in  13 iterations

     negative rho (up, down):  4.907E-04 0.000E+00

     Forces acting on atoms (cartesian axes, Ry/au):

     atom    1 type  1   force =     0.03826680   -0.03466142    0.03901488
     atom    2 type  1   force =     0.02179017    0.01205909    0.02576821
     atom    3 type  1   force =     0.02590534    0.08981245   -0.02800103
     atom    4 type  1   force =    -0.00396812    0.01886896    0.02848068
     atom    5 type  1   force =    -0.04779134   -0.05148589   -0.06355294
     atom    6 type  1   force =     0.05652388    0.01024844   -0.01415530
     atom    7 type  1   force =    -0.05389578   -0.00231372    0.04283055
     atom    8 type  1   force =     0.09583110   -0.01013446   -0.02641398
     atom    9 type  2   force =    -0.05175607   -0.07714749   -0.06499379
     atom   10 type  2   force =    -0.00528532    0.02556169    0.02545673
     atom   11 type  2   force =    -0.02447787   -0.08841041    0.02315844
     atom   12 type  2   force =    -0.05114282    0.10760275    0.01240754

     Total force =     0.284364     Total SCF correction =     0.000010
     Energy error            =      4.2E-02 Ry
     Gradient error          =      1.1E-01 Ry/Bohr

     number of scf cycles    =   5
     number of bfgs steps    =   3

     energy             old  =    -176.0280361231 Ry
     energy             new  =    -176.0699783131 Ry

     CASE: energy            _new < energy            _old

     new trust radius        =       0.1366790491 bohr
     new conv_thr            =            1.0E-10 Ry


ATOMIC_POSITIONS (angstrom)
H             3.9620183773        3.6384409258       11.0826193934
H             5.2070104226        4.2094596363       10.2053638773
H             3.0664304024        1.3110343383        8.0557224526
H             3.2745815881        2.5484098787        9.0663693050
H             4.2756672337        3.6744788748        8.5477680869
H             6.2540812737        4.2669669655        8.3602680572
H             3.4633082336        1.7964914079       10.9129171391
H             1.9659975083        2.8964762222       11.2317474928
O             5.2219815625        4.2051855321       11.1423834995
O             3.5785145650        2.9924474012        8.2679419891
O             5.3410533817        4.5640594363        8.1842035259
O             3.0247419020        2.7146561391       10.9823812591



     Writing config-only to output data dir ./output/f-BH.save/
     NEW-OLD atomic charge density approx. for the potential

     negative rho (up, down):  4.865E-04 0.000E+00

     total cpu time spent up to now is      523.1 secs

     per-process dynamical memory:   210.2 Mb

     Self-consistent Calculation

     iteration #  1     ecut=    60.00 Ry     beta= 0.70
     Davidson diagonalization with overlap
     ethr =  1.00E-06,  avg # of iterations = 10.0

     negative rho (up, down):  5.060E-04 0.000E+00

     total cpu time spent up to now is      536.8 secs

     total energy              =    -176.12072487 Ry
     estimated scf accuracy    <       0.01602998 Ry

     iteration #  2     ecut=    60.00 Ry     beta= 0.70
     Davidson diagonalization with overlap
     ethr =  5.01E-05,  avg # of iterations =  4.0

     negative rho (up, down):  5.050E-04 0.000E+00

     total cpu time spent up to now is      542.7 secs

     total energy              =    -176.12248549 Ry
     estimated scf accuracy    <       0.01983728 Ry

     iteration #  3     ecut=    60.00 Ry     beta= 0.70
     Davidson diagonalization with overlap
     ethr =  5.01E-05,  avg # of iterations =  4.0

     negative rho (up, down):  5.062E-04 0.000E+00

     total cpu time spent up to now is      548.0 secs

     total energy              =    -176.12682948 Ry
     estimated scf accuracy    <       0.00069685 Ry

     iteration #  4     ecut=    60.00 Ry     beta= 0.70
     Davidson diagonalization with overlap
     ethr =  2.18E-06,  avg # of iterations =  3.4

     negative rho (up, down):  5.068E-04 0.000E+00

     total cpu time spent up to now is      553.3 secs

     total energy              =    -176.12698136 Ry
     estimated scf accuracy    <       0.00006083 Ry

     iteration #  5     ecut=    60.00 Ry     beta= 0.70
     Davidson diagonalization with overlap
     ethr =  1.90E-07,  avg # of iterations =  3.2

     negative rho (up, down):  5.068E-04 0.000E+00

     total cpu time spent up to now is      558.8 secs

     total energy              =    -176.12699975 Ry
     estimated scf accuracy    <       0.00000623 Ry

     iteration #  6     ecut=    60.00 Ry     beta= 0.70
     Davidson diagonalization with overlap
     ethr =  1.95E-08,  avg # of iterations =  2.7

     negative rho (up, down):  5.069E-04 0.000E+00

     total cpu time spent up to now is      564.1 secs

     total energy              =    -176.12700062 Ry
     estimated scf accuracy    <       0.00000083 Ry

     iteration #  7     ecut=    60.00 Ry     beta= 0.70
     Davidson diagonalization with overlap
     ethr =  2.60E-09,  avg # of iterations =  2.5

     negative rho (up, down):  5.069E-04 0.000E+00

     total cpu time spent up to now is      569.4 secs

     total energy              =    -176.12700075 Ry
     estimated scf accuracy    <       0.00000010 Ry

     iteration #  8     ecut=    60.00 Ry     beta= 0.70
     Davidson diagonalization with overlap
     ethr =  3.09E-10,  avg # of iterations =  4.0

     negative rho (up, down):  5.069E-04 0.000E+00

     total cpu time spent up to now is      575.2 secs

     total energy              =    -176.12700079 Ry
     estimated scf accuracy    <       0.00000002 Ry

     iteration #  9     ecut=    60.00 Ry     beta= 0.70
     Davidson diagonalization with overlap
     ethr =  5.25E-11,  avg # of iterations =  2.0

     negative rho (up, down):  5.069E-04 0.000E+00

     total cpu time spent up to now is      580.1 secs

     total energy              =    -176.12700079 Ry
     estimated scf accuracy    <          3.7E-09 Ry

     iteration # 10     ecut=    60.00 Ry     beta= 0.70
     Davidson diagonalization with overlap
     ethr =  1.16E-11,  avg # of iterations =  3.9

     negative rho (up, down):  5.069E-04 0.000E+00

     total cpu time spent up to now is      585.5 secs

     End of self-consistent calculation

          k = 0.0000 0.0000 0.0000 ( 18047 PWs)   bands (ev):

   -25.4333 -24.9773 -23.5778 -23.1253 -13.7186 -13.2264 -12.6406 -11.7512
   -10.1705  -9.0024  -7.4950  -7.2777  -6.9248  -6.7810  -6.4138  -6.2434

          k =-0.0153 0.2863 0.0000 ( 18132 PWs)   bands (ev):

   -25.3023 -24.9113 -23.7516 -23.2544 -13.6085 -13.2486 -12.4441 -11.5976
   -10.0712  -9.0708  -7.8344  -7.4534  -7.0485  -6.8283  -6.4696  -6.1707

          k = 0.0307-0.5725 0.0000 ( 18166 PWs)   bands (ev):

   -25.1154 -24.8668 -23.9409 -23.3997 -13.5382 -13.2701 -12.1654 -11.4274
    -9.9507  -9.2041  -8.2313  -7.5557  -7.2154  -6.8861  -6.4083  -6.1224

          k = 0.2575-0.1328 0.0000 ( 18109 PWs)   bands (ev):

   -25.3834 -24.9149 -23.6249 -23.2377 -13.7886 -13.2124 -12.5590 -11.7361
   -10.0900  -9.0059  -7.5093  -7.3076  -7.1454  -6.8580  -6.3220  -6.2120

          k = 0.2421 0.1535 0.0000 ( 18132 PWs)   bands (ev):

   -25.2964 -24.9024 -23.7637 -23.2642 -13.5905 -13.2609 -12.4942 -11.5443
   -10.0244  -9.0369  -7.8044  -7.4696  -7.2039  -6.9130  -6.3085  -6.1478

          k = 0.2882-0.7053 0.0000 ( 18147 PWs)   bands (ev):

   -25.1072 -24.8572 -23.9543 -23.4109 -13.5266 -13.2924 -12.2157 -11.3579
    -9.8829  -9.1493  -8.2371  -7.6385  -7.2650  -6.9908  -6.2640  -6.0942

          k = 0.2728-0.4190 0.0000 ( 18128 PWs)   bands (ev):

   -25.2379 -24.8479 -23.7984 -23.3812 -13.6980 -13.2498 -12.3424 -11.5483
    -9.9732  -9.0812  -7.8831  -7.5330  -7.2459  -6.9391  -6.2386  -6.1377

          k =-0.5150 0.2656 0.0000 ( 18184 PWs)   bands (ev):

   -25.3302 -24.8452 -23.6691 -23.3628 -13.8539 -13.2055 -12.4896 -11.7069
   -10.0039  -9.0133  -7.5244  -7.3859  -7.2792  -6.9295  -6.2582  -6.1227

          k =-0.5303 0.5518 0.0000 ( 18128 PWs)   bands (ev):

   -25.2315 -24.8377 -23.8117 -23.3916 -13.6799 -13.2661 -12.3876 -11.4974
    -9.9247  -9.0459  -7.8541  -7.5967  -7.2995  -6.9990  -6.1625  -6.1060

          k =-0.4843-0.3070 0.0000 ( 18166 PWs)   bands (ev):

   -25.0985 -24.8473 -23.9681 -23.4227 -13.5077 -13.2914 -12.2744 -11.3269
    -9.8191  -9.0977  -8.2390  -7.7069  -7.2682  -7.0717  -6.1920  -6.0801

     highest occupied level (ev):    -6.0801

!    total energy              =    -176.12700079 Ry

     total all-electron energy =      -611.514546 Ry
     estimated scf accuracy    <          1.0E-10 Ry

     The total energy is the sum of the following terms:
     one-electron contribution =    -665.41604362 Ry
     hartree contribution      =     340.15523278 Ry
     xc contribution           =     -35.49686756 Ry
     ewald contribution        =     222.98439857 Ry
     one-center paw contrib.   =     -38.35372097 Ry

     convergence has been achieved in  10 iterations

     negative rho (up, down):  5.069E-04 0.000E+00

     Forces acting on atoms (cartesian axes, Ry/au):

     atom    1 type  1   force =     0.04321932   -0.01455268    0.02966214
     atom    2 type  1   force =     0.01644533    0.00774960   -0.09631769
     atom    3 type  1   force =     0.03102423    0.04225425   -0.02553891
     atom    4 type  1   force =    -0.00500012    0.01530518    0.03556634
     atom    5 type  1   force =    -0.00894705   -0.01287367   -0.03399459
     atom    6 type  1   force =     0.01887952    0.01829901   -0.02099253
     atom    7 type  1   force =    -0.06225072    0.01332139    0.04183722
     atom    8 type  1   force =     0.07155870   -0.00558781   -0.01736400
     atom    9 type  2   force =    -0.06425382   -0.05536194    0.06552349
     atom   10 type  2   force =    -0.04293638   -0.01018408   -0.00889956
     atom   11 type  2   force =     0.00836243   -0.04756478    0.02428826
     atom   12 type  2   force =    -0.00610145    0.04919552    0.00622983

     Total force =     0.224083     Total SCF correction =     0.000012
     Energy error            =      5.7E-02 Ry
     Gradient error          =      9.6E-02 Ry/Bohr

     number of scf cycles    =   6
     number of bfgs steps    =   4

     energy             old  =    -176.0699783131 Ry
     energy             new  =    -176.1270007906 Ry

     CASE: energy            _new < energy            _old

     new trust radius        =       0.2844552928 bohr
     new conv_thr            =            1.0E-10 Ry


ATOMIC_POSITIONS (angstrom)
H             3.9850559819        3.5807354004       11.1295971561
H             5.2326902556        4.2305533039       10.1748793268
H             3.1187147760        1.3541251897        8.0151499711
H             3.2669628625        2.5807486429        9.1172828148
H             4.2281549712        3.6177020083        8.4607276395
H             6.2929419498        4.2894134546        8.3248080549
H             3.3437710071        1.8453286982       10.9902749189
H             2.1060424630        2.8817456671       11.1984788067
O             5.1880749387        4.1184420744       11.1239072460
O             3.5198692118        2.9844787574        8.2923508351
O             5.3649525632        4.5381206106        8.2267005168
O             2.9881554700        2.7967129506       10.9855287910



     Writing config-only to output data dir ./output/f-BH.save/
     NEW-OLD atomic charge density approx. for the potential

     negative rho (up, down):  4.611E-04 0.000E+00

     total cpu time spent up to now is      598.1 secs

     per-process dynamical memory:   210.2 Mb

     Self-consistent Calculation

     iteration #  1     ecut=    60.00 Ry     beta= 0.70
     Davidson diagonalization with overlap
     ethr =  1.00E-06,  avg # of iterations = 11.0

     negative rho (up, down):  4.973E-04 0.000E+00

     total cpu time spent up to now is      613.8 secs

     total energy              =    -176.16313727 Ry
     estimated scf accuracy    <       0.03093843 Ry

     iteration #  2     ecut=    60.00 Ry     beta= 0.70
     Davidson diagonalization with overlap
     ethr =  9.67E-05,  avg # of iterations =  3.0

     negative rho (up, down):  5.008E-04 0.000E+00

     total cpu time spent up to now is      619.6 secs

     total energy              =    -176.16914594 Ry
     estimated scf accuracy    <       0.00669175 Ry

     iteration #  3     ecut=    60.00 Ry     beta= 0.70
     Davidson diagonalization with overlap
     ethr =  2.09E-05,  avg # of iterations =  3.2

     negative rho (up, down):  5.024E-04 0.000E+00

     total cpu time spent up to now is      625.1 secs

     total energy              =    -176.17070935 Ry
     estimated scf accuracy    <       0.00047713 Ry

     iteration #  4     ecut=    60.00 Ry     beta= 0.70
     Davidson diagonalization with overlap
     ethr =  1.49E-06,  avg # of iterations =  3.0

     negative rho (up, down):  5.030E-04 0.000E+00

     total cpu time spent up to now is      630.3 secs

     total energy              =    -176.17077506 Ry
     estimated scf accuracy    <       0.00005902 Ry

     iteration #  5     ecut=    60.00 Ry     beta= 0.70
     Davidson diagonalization with overlap
     ethr =  1.84E-07,  avg # of iterations =  4.0

     negative rho (up, down):  5.030E-04 0.000E+00

     total cpu time spent up to now is      635.9 secs

     total energy              =    -176.17078982 Ry
     estimated scf accuracy    <       0.00003163 Ry

     iteration #  6     ecut=    60.00 Ry     beta= 0.70
     Davidson diagonalization with overlap
     ethr =  9.88E-08,  avg # of iterations =  3.6

     negative rho (up, down):  5.031E-04 0.000E+00

     total cpu time spent up to now is      641.1 secs

     total energy              =    -176.17079640 Ry
     estimated scf accuracy    <       0.00000032 Ry

     iteration #  7     ecut=    60.00 Ry     beta= 0.70
     Davidson diagonalization with overlap
     ethr =  1.01E-09,  avg # of iterations =  4.0

     negative rho (up, down):  5.031E-04 0.000E+00

     total cpu time spent up to now is      647.7 secs

     total energy              =    -176.17079657 Ry
     estimated scf accuracy    <       0.00000015 Ry

     iteration #  8     ecut=    60.00 Ry     beta= 0.70
     Davidson diagonalization with overlap
     ethr =  4.81E-10,  avg # of iterations =  2.0

     negative rho (up, down):  5.031E-04 0.000E+00

     total cpu time spent up to now is      652.9 secs

     total energy              =    -176.17079660 Ry
     estimated scf accuracy    <       0.00000001 Ry

     iteration #  9     ecut=    60.00 Ry     beta= 0.70
     Davidson diagonalization with overlap
     ethr =  3.62E-11,  avg # of iterations =  3.7

     negative rho (up, down):  5.031E-04 0.000E+00

     total cpu time spent up to now is      658.9 secs

     total energy              =    -176.17079660 Ry
     estimated scf accuracy    <          2.3E-09 Ry

     iteration # 10     ecut=    60.00 Ry     beta= 0.70
     Davidson diagonalization with overlap
     ethr =  7.28E-12,  avg # of iterations =  3.0

     negative rho (up, down):  5.031E-04 0.000E+00

     total cpu time spent up to now is      663.9 secs

     End of self-consistent calculation

          k = 0.0000 0.0000 0.0000 ( 18047 PWs)   bands (ev):

   -26.0589 -25.0920 -23.7392 -22.6106 -14.1738 -13.3956 -12.3367 -12.2190
   -10.0628  -8.9889  -7.8777  -7.2532  -6.6792  -6.5949  -6.5108  -5.8678

          k =-0.0153 0.2863 0.0000 ( 18132 PWs)   bands (ev):

   -26.0247 -24.9360 -23.9560 -22.6707 -14.2214 -13.3425 -12.1328 -12.0509
    -9.9491  -9.0636  -8.0839  -7.5677  -6.7531  -6.6717  -6.3620  -5.9231

          k = 0.0307-0.5725 0.0000 ( 18166 PWs)   bands (ev):

   -25.9897 -24.6424 -24.3087 -22.7314 -14.2671 -13.3104 -11.9181 -11.8280
    -9.8036  -9.1458  -8.4952  -7.6786  -6.7978  -6.7738  -6.2862  -5.9211

          k = 0.2575-0.1328 0.0000 ( 18109 PWs)   bands (ev):

   -26.0202 -25.0350 -23.8138 -22.6894 -14.0818 -13.4478 -12.3012 -12.2431
    -9.9644  -8.9982  -7.8951  -7.3351  -6.7702  -6.6385  -6.4954  -5.8719

          k = 0.2421 0.1535 0.0000 ( 18132 PWs)   bands (ev):

   -26.0142 -24.9247 -23.9723 -22.6975 -14.1654 -13.2563 -12.2530 -12.0719
    -9.8778  -9.0195  -8.0665  -7.6140  -6.8638  -6.7448  -6.3342  -5.7752

          k = 0.2882-0.7053 0.0000 ( 18147 PWs)   bands (ev):

   -25.9787 -24.6013 -24.3546 -22.7582 -14.2197 -13.2440 -11.9957 -11.8692
    -9.7025  -9.0696  -8.5352  -7.7193  -6.9447  -6.8192  -6.2454  -5.7739

          k = 0.2728-0.4190 0.0000 ( 18128 PWs)   bands (ev):

   -25.9848 -24.8513 -24.0578 -22.7500 -14.1431 -13.4155 -12.0863 -12.0382
    -9.8237  -9.0840  -8.1513  -7.6207  -6.8703  -6.7420  -6.3099  -5.8577

          k =-0.5150 0.2656 0.0000 ( 18184 PWs)   bands (ev):

   -25.9799 -24.9708 -23.8955 -22.7688 -13.9966 -13.4914 -12.3235 -12.2125
    -9.8538  -9.0215  -7.9014  -7.4234  -6.8857  -6.6768  -6.4586  -5.8199

          k =-0.5303 0.5518 0.0000 ( 18128 PWs)   bands (ev):

   -25.9737 -24.8369 -24.0772 -22.7769 -14.0861 -13.3388 -12.1709 -12.0894
    -9.7403  -9.0524  -8.1231  -7.6779  -6.9730  -6.7761  -6.2911  -5.7428

          k =-0.4843-0.3070 0.0000 ( 18166 PWs)   bands (ev):

   -25.9676 -24.5295 -24.4314 -22.7853 -14.1619 -13.1563 -12.1163 -11.9063
    -9.5832  -9.0298  -8.5544  -7.7711  -7.0414  -6.8436  -6.2213  -5.6811

     highest occupied level (ev):    -5.6811

!    total energy              =    -176.17079660 Ry

     total all-electron energy =      -611.558341 Ry
     estimated scf accuracy    <          5.1E-11 Ry

     The total energy is the sum of the following terms:
     one-electron contribution =    -670.01400505 Ry
     hartree contribution      =     342.51223426 Ry
     xc contribution           =     -35.66173077 Ry
     ewald contribution        =     225.34544510 Ry
     one-center paw contrib.   =     -38.35274013 Ry

     convergence has been achieved in  10 iterations

     negative rho (up, down):  5.031E-04 0.000E+00

     Forces acting on atoms (cartesian axes, Ry/au):

     atom    1 type  1   force =     0.07547331    0.03133281    0.01361449
     atom    2 type  1   force =     0.00764949    0.00563806   -0.05039111
     atom    3 type  1   force =     0.03400594   -0.06603243   -0.00261307
     atom    4 type  1   force =    -0.00781117    0.00916705    0.05080616
     atom    5 type  1   force =     0.04996920    0.03409242   -0.01040006
     atom    6 type  1   force =     0.03456545   -0.00026259   -0.01549715
     atom    7 type  1   force =    -0.04231671    0.01322746    0.02902218
     atom    8 type  1   force =    -0.18279504    0.03011181    0.05161656
     atom    9 type  2   force =    -0.08374956   -0.03369956    0.03590625
     atom   10 type  2   force =    -0.08965226   -0.04899211   -0.04983389
     atom   11 type  2   force =    -0.01883734    0.07815146   -0.00238696
     atom   12 type  2   force =     0.22349869   -0.05273437   -0.04984339

     Total force =     0.383123     Total SCF correction =     0.000010
     Energy error            =      4.4E-02 Ry
     Gradient error          =      2.2E-01 Ry/Bohr

     number of scf cycles    =   7
     number of bfgs steps    =   5

     energy             old  =    -176.1270007906 Ry
     energy             new  =    -176.1707966005 Ry

     CASE: energy            _new < energy            _old

     new trust radius        =       0.1344826650 bohr
     new conv_thr            =            1.0E-10 Ry


ATOMIC_POSITIONS (angstrom)
H             4.0195219121        3.5745453630       11.1469940622
H             5.2439369281        4.2382831298       10.1566470474
H             3.1436737272        1.3629759198        8.0016090471
H             3.2595226912        2.5891096740        9.1565851487
H             4.2307065564        3.6124539075        8.4315610924
H             6.3210453707        4.2956980390        8.3100328858
H             3.2995546451        1.8558255030       11.0212118925
H             2.0774234632        2.8884529106       11.2075833839
O             5.1459504958        4.0805371394       11.1243064271
O             3.4789758573        2.9743502707        8.2747793164
O             5.3589839554        4.5343560671        8.2380143958
O             3.0560908484        2.8115188342       10.9703613786



     Writing config-only to output data dir ./output/f-BH.save/
     NEW-OLD atomic charge density approx. for the potential

     negative rho (up, down):  4.801E-04 0.000E+00

     total cpu time spent up to now is      676.8 secs

     per-process dynamical memory:   210.2 Mb

     Self-consistent Calculation

     iteration #  1     ecut=    60.00 Ry     beta= 0.70
     Davidson diagonalization with overlap
     ethr =  1.00E-06,  avg # of iterations =  9.5

     negative rho (up, down):  4.897E-04 0.000E+00

     total cpu time spent up to now is      691.0 secs

     total energy              =    -176.21077668 Ry
     estimated scf accuracy    <       0.01096833 Ry

     iteration #  2     ecut=    60.00 Ry     beta= 0.70
     Davidson diagonalization with overlap
     ethr =  3.43E-05,  avg # of iterations =  2.0

     negative rho (up, down):  4.969E-04 0.000E+00

     total cpu time spent up to now is      696.7 secs

     total energy              =    -176.21320245 Ry
     estimated scf accuracy    <       0.00122938 Ry

     iteration #  3     ecut=    60.00 Ry     beta= 0.70
     Davidson diagonalization with overlap
     ethr =  3.84E-06,  avg # of iterations =  2.0

     negative rho (up, down):  4.981E-04 0.000E+00

     total cpu time spent up to now is      702.2 secs

     total energy              =    -176.21343908 Ry
     estimated scf accuracy    <       0.00008439 Ry

     iteration #  4     ecut=    60.00 Ry     beta= 0.70
     Davidson diagonalization with overlap
     ethr =  2.64E-07,  avg # of iterations =  2.0

     negative rho (up, down):  4.984E-04 0.000E+00

     total cpu time spent up to now is      707.6 secs

     total energy              =    -176.21345115 Ry
     estimated scf accuracy    <       0.00000677 Ry

     iteration #  5     ecut=    60.00 Ry     beta= 0.70
     Davidson diagonalization with overlap
     ethr =  2.11E-08,  avg # of iterations =  2.2

     negative rho (up, down):  4.986E-04 0.000E+00

     total cpu time spent up to now is      713.2 secs

     total energy              =    -176.21345251 Ry
     estimated scf accuracy    <       0.00000113 Ry

     iteration #  6     ecut=    60.00 Ry     beta= 0.70
     Davidson diagonalization with overlap
     ethr =  3.53E-09,  avg # of iterations =  2.2

     negative rho (up, down):  4.986E-04 0.000E+00

     total cpu time spent up to now is      718.6 secs

     total energy              =    -176.21345268 Ry
     estimated scf accuracy    <       0.00000010 Ry

     iteration #  7     ecut=    60.00 Ry     beta= 0.70
     Davidson diagonalization with overlap
     ethr =  3.00E-10,  avg # of iterations =  2.6

     negative rho (up, down):  4.986E-04 0.000E+00

     total cpu time spent up to now is      724.3 secs

     total energy              =    -176.21345270 Ry
     estimated scf accuracy    <       0.00000003 Ry

     iteration #  8     ecut=    60.00 Ry     beta= 0.70
     Davidson diagonalization with overlap
     ethr =  8.49E-11,  avg # of iterations =  2.5

     negative rho (up, down):  4.986E-04 0.000E+00

     total cpu time spent up to now is      729.7 secs

     total energy              =    -176.21345271 Ry
     estimated scf accuracy    <          1.5E-09 Ry

     iteration #  9     ecut=    60.00 Ry     beta= 0.70
     Davidson diagonalization with overlap
     ethr =  4.64E-12,  avg # of iterations =  3.1

     negative rho (up, down):  4.986E-04 0.000E+00

     total cpu time spent up to now is      735.5 secs

     total energy              =    -176.21345271 Ry
     estimated scf accuracy    <          5.9E-10 Ry

     iteration # 10     ecut=    60.00 Ry     beta= 0.70
     Davidson diagonalization with overlap
     ethr =  1.86E-12,  avg # of iterations =  2.0

     negative rho (up, down):  4.986E-04 0.000E+00

     total cpu time spent up to now is      740.9 secs

     End of self-consistent calculation

          k = 0.0000 0.0000 0.0000 ( 18047 PWs)   bands (ev):

   -25.7836 -24.7626 -23.3683 -22.5365 -13.3651 -12.9748 -12.6550 -11.9207
   -10.1739  -9.0055  -7.7821  -7.1273  -6.6137  -6.4502  -6.3862  -5.9717

          k =-0.0153 0.2863 0.0000 ( 18132 PWs)   bands (ev):

   -25.7437 -24.6052 -23.5893 -22.6078 -13.4403 -12.9047 -12.4479 -11.7161
   -10.0704  -9.0961  -7.9885  -7.4326  -6.6963  -6.5346  -6.2491  -6.0131

          k = 0.0307-0.5725 0.0000 ( 18166 PWs)   bands (ev):

   -25.7023 -24.3179 -23.9384 -22.6801 -13.5019 -12.8543 -12.2669 -11.4201
    -9.9398  -9.1898  -8.4203  -7.5444  -6.7450  -6.6352  -6.1735  -6.0052

          k = 0.2575-0.1328 0.0000 ( 18109 PWs)   bands (ev):

   -25.7411 -24.7003 -23.4504 -22.6191 -13.2866 -13.0139 -12.6782 -11.8494
   -10.0709  -9.0130  -7.8113  -7.2240  -6.7938  -6.5290  -6.3646  -5.8895

          k = 0.2421 0.1535 0.0000 ( 18132 PWs)   bands (ev):

   -25.7264 -24.5954 -23.6038 -22.6493 -13.3282 -12.8059 -12.5077 -11.8345
    -9.9873  -9.0462  -7.9898  -7.5044  -6.8320  -6.6227  -6.2046  -5.8541

          k = 0.2882-0.7053 0.0000 ( 18147 PWs)   bands (ev):

   -25.6842 -24.2879 -23.9729 -22.7220 -13.4226 -12.7877 -12.2731 -11.5336
    -9.8281  -9.1073  -8.4749  -7.6102  -6.9094  -6.7074  -6.1191  -5.8390

          k = 0.2728-0.4190 0.0000 ( 18128 PWs)   bands (ev):

   -25.6994 -24.5132 -23.7004 -22.6914 -13.3970 -12.9866 -12.4074 -11.6080
    -9.9411  -9.1153  -8.0772  -7.5109  -6.8904  -6.6414  -6.1837  -5.8657

          k =-0.5150 0.2656 0.0000 ( 18184 PWs)   bands (ev):

   -25.6966 -24.6295 -23.5407 -22.7029 -13.2448 -13.0288 -12.6827 -11.7865
    -9.9552  -9.0304  -7.8394  -7.3250  -6.9708  -6.5679  -6.3206  -5.8098

          k =-0.5303 0.5518 0.0000 ( 18128 PWs)   bands (ev):

   -25.6812 -24.5008 -23.7175 -22.7333 -13.2873 -12.8994 -12.4681 -11.7161
    -9.8427  -9.0735  -8.0729  -7.5969  -7.0090  -6.6632  -6.1512  -5.7683

          k =-0.4843-0.3070 0.0000 ( 18166 PWs)   bands (ev):

   -25.6656 -24.2485 -24.0169 -22.7642 -13.3168 -12.6877 -12.3273 -11.6654
    -9.6934  -9.0574  -8.5122  -7.6971  -7.0349  -6.7299  -6.0844  -5.7364

     highest occupied level (ev):    -5.7364

!    total energy              =    -176.21345271 Ry

     total all-electron energy =      -611.600998 Ry
     estimated scf accuracy    <          1.9E-11 Ry

     The total energy is the sum of the following terms:
     one-electron contribution =    -668.84661577 Ry
     hartree contribution      =     342.04126351 Ry
     xc contribution           =     -35.54200470 Ry
     ewald contribution        =     224.48699241 Ry
     one-center paw contrib.   =     -38.35308815 Ry

     convergence has been achieved in  10 iterations

     negative rho (up, down):  4.986E-04 0.000E+00

     Forces acting on atoms (cartesian axes, Ry/au):

     atom    1 type  1   force =     0.08690988    0.03431653    0.00725816
     atom    2 type  1   force =    -0.00168278   -0.00290091    0.00101295
     atom    3 type  1   force =     0.02481512   -0.06894295    0.00433486
     atom    4 type  1   force =     0.00485378    0.03222256   -0.00357398
     atom    5 type  1   force =     0.01433899    0.00209603   -0.02292436
     atom    6 type  1   force =    -0.01101323    0.00121890   -0.01808672
     atom    7 type  1   force =    -0.00694867   -0.01840079    0.02402655
     atom    8 type  1   force =    -0.00066384    0.02712600    0.00217451
     atom    9 type  2   force =    -0.04334749   -0.01499707   -0.00713472
     atom   10 type  2   force =    -0.06250490   -0.03600635    0.01277967
     atom   11 type  2   force =     0.03229180    0.07644392   -0.00121753
     atom   12 type  2   force =    -0.03704866   -0.03217588    0.00135061

     Total force =     0.186997     Total SCF correction =     0.000004
     Energy error            =      4.3E-02 Ry
     Gradient error          =      8.7E-02 Ry/Bohr

     number of scf cycles    =   8
     number of bfgs steps    =   6

     energy             old  =    -176.1707966005 Ry
     energy             new  =    -176.2134527083 Ry

     CASE: energy            _new < energy            _old

     new trust radius        =       0.1355256875 bohr
     new conv_thr            =            1.0E-10 Ry


ATOMIC_POSITIONS (angstrom)
H             4.0864119834        3.5729861647       11.1666756975
H             5.2553148906        4.2452996764       10.1513385180
H             3.1829133701        1.3488119289        7.9867726135
H             3.2518527776        2.6140541006        9.1999818421
H             4.2280931330        3.5959437456        8.3802542772
H             6.3411083005        4.3043224968        8.2827952235
H             3.2468598889        1.8563661608       11.0698566615
H             2.0900454212        2.9051112071       11.2066699950
O             5.1007854877        4.0367145735       11.1105768719
O             3.4127080774        2.9556098266        8.2669541115
O             5.3790780577        4.5586162796        8.2535289677
O             3.0602150626        2.8242705975       10.9642812985



     Writing config-only to output data dir ./output/f-BH.save/
     NEW-OLD atomic charge density approx. for the potential

     negative rho (up, down):  4.737E-04 0.000E+00

     total cpu time spent up to now is      753.6 secs

     per-process dynamical memory:   210.2 Mb

     Self-consistent Calculation

     iteration #  1     ecut=    60.00 Ry     beta= 0.70
     Davidson diagonalization with overlap
     ethr =  1.00E-06,  avg # of iterations =  9.9

     negative rho (up, down):  4.915E-04 0.000E+00

     total cpu time spent up to now is      767.9 secs

     total energy              =    -176.24006804 Ry
     estimated scf accuracy    <       0.00918075 Ry

     iteration #  2     ecut=    60.00 Ry     beta= 0.70
     Davidson diagonalization with overlap
     ethr =  2.87E-05,  avg # of iterations =  2.3

     negative rho (up, down):  4.950E-04 0.000E+00

     total cpu time spent up to now is      773.4 secs

     total energy              =    -176.24181137 Ry
     estimated scf accuracy    <       0.00152949 Ry

     iteration #  3     ecut=    60.00 Ry     beta= 0.70
     Davidson diagonalization with overlap
     ethr =  4.78E-06,  avg # of iterations =  3.0

     negative rho (up, down):  4.960E-04 0.000E+00

     total cpu time spent up to now is      779.2 secs

     total energy              =    -176.24218772 Ry
     estimated scf accuracy    <       0.00023598 Ry

     iteration #  4     ecut=    60.00 Ry     beta= 0.70
     Davidson diagonalization with overlap
     ethr =  7.37E-07,  avg # of iterations =  3.1

     negative rho (up, down):  4.963E-04 0.000E+00

     total cpu time spent up to now is      784.5 secs

     total energy              =    -176.24222898 Ry
     estimated scf accuracy    <       0.00001032 Ry

     iteration #  5     ecut=    60.00 Ry     beta= 0.70
     Davidson diagonalization with overlap
     ethr =  3.22E-08,  avg # of iterations =  2.9

     negative rho (up, down):  4.962E-04 0.000E+00

     total cpu time spent up to now is      790.4 secs

     total energy              =    -176.24223161 Ry
     estimated scf accuracy    <       0.00000273 Ry

     iteration #  6     ecut=    60.00 Ry     beta= 0.70
     Davidson diagonalization with overlap
     ethr =  8.53E-09,  avg # of iterations =  2.0

     negative rho (up, down):  4.961E-04 0.000E+00

     total cpu time spent up to now is      795.7 secs

     total energy              =    -176.24223191 Ry
     estimated scf accuracy    <       0.00000019 Ry

     iteration #  7     ecut=    60.00 Ry     beta= 0.70
     Davidson diagonalization with overlap
     ethr =  6.02E-10,  avg # of iterations =  3.7

     negative rho (up, down):  4.961E-04 0.000E+00

     total cpu time spent up to now is      802.2 secs

     total energy              =    -176.24223199 Ry
     estimated scf accuracy    <       0.00000009 Ry

     iteration #  8     ecut=    60.00 Ry     beta= 0.70
     Davidson diagonalization with overlap
     ethr =  2.84E-10,  avg # of iterations =  2.0

     negative rho (up, down):  4.961E-04 0.000E+00

     total cpu time spent up to now is      807.5 secs

     total energy              =    -176.24223200 Ry
     estimated scf accuracy    <          9.6E-09 Ry

     iteration #  9     ecut=    60.00 Ry     beta= 0.70
     Davidson diagonalization with overlap
     ethr =  3.00E-11,  avg # of iterations =  3.0

     negative rho (up, down):  4.961E-04 0.000E+00

     total cpu time spent up to now is      813.7 secs

     total energy              =    -176.24223201 Ry
     estimated scf accuracy    <          1.2E-09 Ry

     iteration # 10     ecut=    60.00 Ry     beta= 0.70
     Davidson diagonalization with overlap
     ethr =  3.65E-12,  avg # of iterations =  2.0

     negative rho (up, down):  4.961E-04 0.000E+00

     total cpu time spent up to now is      819.1 secs

     End of self-consistent calculation

          k = 0.0000 0.0000 0.0000 ( 18047 PWs)   bands (ev):

   -25.6369 -24.5873 -23.1299 -22.8036 -13.1669 -12.5689 -12.5047 -11.7494
   -10.2974  -9.0539  -7.6600  -7.0534  -6.7110  -6.4379  -6.2107  -6.0679

          k =-0.0153 0.2863 0.0000 ( 18132 PWs)   bands (ev):

   -25.5923 -24.4474 -23.3237 -22.8843 -13.2749 -12.5084 -12.2796 -11.5306
   -10.2140  -9.1395  -7.8517  -7.2763  -6.7897  -6.5246  -6.1581  -6.0782

          k = 0.0307-0.5725 0.0000 ( 18166 PWs)   bands (ev):

   -25.5454 -24.2346 -23.5905 -22.9650 -13.3511 -12.4852 -12.0789 -11.2259
   -10.1249  -9.1992  -8.2498  -7.3847  -6.8384  -6.6143  -6.1210  -6.0403

          k = 0.2575-0.1328 0.0000 ( 18109 PWs)   bands (ev):

   -25.5862 -24.5236 -23.2139 -22.8965 -13.0343 -12.6529 -12.5468 -11.6470
   -10.1910  -9.0553  -7.7160  -7.1634  -6.9239  -6.4830  -6.1769  -5.9864

          k = 0.2421 0.1535 0.0000 ( 18132 PWs)   bands (ev):

   -25.5668 -24.4499 -23.3245 -22.9358 -13.0531 -12.4972 -12.3827 -11.6353
   -10.1168  -9.0802  -7.8898  -7.3943  -6.9347  -6.5600  -6.0570  -5.9552

          k = 0.2882-0.7053 0.0000 ( 18147 PWs)   bands (ev):

   -25.5183 -24.2403 -23.5859 -23.0197 -13.2044 -12.4606 -12.1308 -11.3261
   -10.0083  -9.1046  -8.3244  -7.5011  -6.9968  -6.6517  -5.9782  -5.9482

          k = 0.2728-0.4190 0.0000 ( 18128 PWs)   bands (ev):

   -25.5388 -24.3603 -23.4292 -22.9803 -13.2136 -12.6151 -12.2364 -11.3937
   -10.0875  -9.1454  -7.9651  -7.4000  -6.9996  -6.5938  -6.0479  -5.9623

          k =-0.5150 0.2656 0.0000 ( 18184 PWs)   bands (ev):

   -25.5322 -24.4518 -23.3037 -22.9937 -12.8901 -12.7504 -12.5737 -11.5589
   -10.0716  -9.0634  -7.7883  -7.2887  -7.0738  -6.5168  -6.1278  -5.9133

          k =-0.5303 0.5518 0.0000 ( 18128 PWs)   bands (ev):

   -25.5114 -24.3639 -23.4281 -23.0339 -12.9793 -12.6023 -12.3703 -11.4873
    -9.9732  -9.0883  -8.0082  -7.5372  -7.0816  -6.5967  -5.9913  -5.8729

          k =-0.4843-0.3070 0.0000 ( 18166 PWs)   bands (ev):

   -25.4900 -24.2457 -23.5822 -23.0748 -12.9961 -12.4240 -12.2462 -11.4447
    -9.8706  -9.0303  -8.3911  -7.6470  -7.0822  -6.6568  -5.9300  -5.8510

     highest occupied level (ev):    -5.8510

!    total energy              =    -176.24223201 Ry

     total all-electron energy =      -611.629777 Ry
     estimated scf accuracy    <          8.5E-11 Ry

     The total energy is the sum of the following terms:
     one-electron contribution =    -669.50219318 Ry
     hartree contribution      =     342.47293273 Ry
     xc contribution           =     -35.55949139 Ry
     ewald contribution        =     224.69951543 Ry
     one-center paw contrib.   =     -38.35299559 Ry

     convergence has been achieved in  10 iterations

     negative rho (up, down):  4.961E-04 0.000E+00

     Forces acting on atoms (cartesian axes, Ry/au):

     atom    1 type  1   force =     0.07727685    0.03766336   -0.00346315
     atom    2 type  1   force =    -0.01363409   -0.00930793    0.01189130
     atom    3 type  1   force =     0.01375645   -0.02622372    0.00211531
     atom    4 type  1   force =     0.00410393    0.03622035   -0.02962605
     atom    5 type  1   force =    -0.02803574   -0.02686037   -0.02999642
     atom    6 type  1   force =    -0.01159791   -0.00548595   -0.01556386
     atom    7 type  1   force =    -0.00182603   -0.00734847    0.01697387
     atom    8 type  1   force =    -0.00498730    0.02682568    0.00080403
     atom    9 type  2   force =     0.00144910    0.00841599   -0.00766693
     atom   10 type  2   force =    -0.00396802    0.00666665    0.04228687
     atom   11 type  2   force =     0.02838488    0.02292860    0.00624856
     atom   12 type  2   force =    -0.06092212   -0.06349418    0.00599647

     Total force =     0.161053     Total SCF correction =     0.000011
     Energy error            =      2.9E-02 Ry
     Gradient error          =      7.7E-02 Ry/Bohr

     number of scf cycles    =   9
     number of bfgs steps    =   7

     energy             old  =    -176.2134527083 Ry
     energy             new  =    -176.2422320060 Ry

     CASE: energy            _new < energy            _old

     new trust radius        =       0.2420660153 bohr
     new conv_thr            =            1.0E-10 Ry


ATOMIC_POSITIONS (angstrom)
H             4.2110368696        3.5993653876       11.1801409537
H             5.2564346509        4.2444260419       10.1461819040
H             3.2340669916        1.3245762193        7.9716302454
H             3.2421776508        2.6615969933        9.2347672489
H             4.2047653426        3.5597836751        8.3051327520
H             6.3581358796        4.3081109024        8.2424404164
H             3.1906554821        1.8496802443       11.1331079570
H             2.0775620795        2.9444319846       11.2115894362
O             5.0593390000        4.0029684961       11.1038146752
O             3.3460944690        2.9495732454        8.2767935017
O             5.4157026899        4.5884034768        8.2749885216
O             3.0394153453        2.7851900912       10.9590984658



     Writing config-only to output data dir ./output/f-BH.save/
     NEW-OLD atomic charge density approx. for the potential

     negative rho (up, down):  4.566E-04 0.000E+00

     total cpu time spent up to now is      831.8 secs

     per-process dynamical memory:   210.2 Mb

     Self-consistent Calculation

     iteration #  1     ecut=    60.00 Ry     beta= 0.70
     Davidson diagonalization with overlap
     ethr =  1.00E-06,  avg # of iterations = 10.0

     negative rho (up, down):  4.875E-04 0.000E+00

     total cpu time spent up to now is      846.4 secs

     total energy              =    -176.25391383 Ry
     estimated scf accuracy    <       0.01656909 Ry

     iteration #  2     ecut=    60.00 Ry     beta= 0.70
     Davidson diagonalization with overlap
     ethr =  5.18E-05,  avg # of iterations =  2.0

     negative rho (up, down):  4.898E-04 0.000E+00

     total cpu time spent up to now is      852.0 secs

     total energy              =    -176.25721132 Ry
     estimated scf accuracy    <       0.00290569 Ry

     iteration #  3     ecut=    60.00 Ry     beta= 0.70
     Davidson diagonalization with overlap
     ethr =  9.08E-06,  avg # of iterations =  2.0

     negative rho (up, down):  4.907E-04 0.000E+00

     total cpu time spent up to now is      857.7 secs

     total energy              =    -176.25779054 Ry
     estimated scf accuracy    <       0.00017109 Ry

     iteration #  4     ecut=    60.00 Ry     beta= 0.70
     Davidson diagonalization with overlap
     ethr =  5.35E-07,  avg # of iterations =  2.0

     negative rho (up, down):  4.914E-04 0.000E+00

     total cpu time spent up to now is      863.1 secs

     total energy              =    -176.25781426 Ry
     estimated scf accuracy    <       0.00002559 Ry

     iteration #  5     ecut=    60.00 Ry     beta= 0.70
     Davidson diagonalization with overlap
     ethr =  8.00E-08,  avg # of iterations =  2.0

     negative rho (up, down):  4.913E-04 0.000E+00

     total cpu time spent up to now is      868.7 secs

     total energy              =    -176.25781990 Ry
     estimated scf accuracy    <       0.00000272 Ry

     iteration #  6     ecut=    60.00 Ry     beta= 0.70
     Davidson diagonalization with overlap
     ethr =  8.49E-09,  avg # of iterations =  2.1

     negative rho (up, down):  4.912E-04 0.000E+00

     total cpu time spent up to now is      874.1 secs

     total energy              =    -176.25782029 Ry
     estimated scf accuracy    <       0.00000026 Ry

     iteration #  7     ecut=    60.00 Ry     beta= 0.70
     Davidson diagonalization with overlap
     ethr =  7.98E-10,  avg # of iterations =  2.0

     negative rho (up, down):  4.912E-04 0.000E+00

     total cpu time spent up to now is      879.8 secs

     total energy              =    -176.25782036 Ry
     estimated scf accuracy    <       0.00000003 Ry

     iteration #  8     ecut=    60.00 Ry     beta= 0.70
     Davidson diagonalization with overlap
     ethr =  1.07E-10,  avg # of iterations =  2.1

     negative rho (up, down):  4.912E-04 0.000E+00

     total cpu time spent up to now is      885.0 secs

     total energy              =    -176.25782036 Ry
     estimated scf accuracy    <          4.3E-09 Ry

     iteration #  9     ecut=    60.00 Ry     beta= 0.70
     Davidson diagonalization with overlap
     ethr =  1.34E-11,  avg # of iterations =  3.0

     negative rho (up, down):  4.912E-04 0.000E+00

     total cpu time spent up to now is      891.4 secs

     total energy              =    -176.25782036 Ry
     estimated scf accuracy    <          1.2E-09 Ry

     iteration # 10     ecut=    60.00 Ry     beta= 0.70
     Davidson diagonalization with overlap
     ethr =  3.76E-12,  avg # of iterations =  2.0

     negative rho (up, down):  4.912E-04 0.000E+00

     total cpu time spent up to now is      896.4 secs

     total energy              =    -176.25782036 Ry
     estimated scf accuracy    <          2.6E-10 Ry

     iteration # 11     ecut=    60.00 Ry     beta= 0.70
     Davidson diagonalization with overlap
     ethr =  8.05E-13,  avg # of iterations =  3.0

     negative rho (up, down):  4.912E-04 0.000E+00

     total cpu time spent up to now is      902.4 secs

     End of self-consistent calculation

          k = 0.0000 0.0000 0.0000 ( 18047 PWs)   bands (ev):

   -25.3219 -24.5740 -23.5916 -23.0243 -13.0146 -12.4559 -12.3401 -11.5778
   -10.2965  -8.9673  -7.5430  -7.0102  -6.8846  -6.4653  -6.3957  -5.9807

          k =-0.0153 0.2863 0.0000 ( 18132 PWs)   bands (ev):

   -25.2488 -24.4641 -23.6773 -23.1989 -13.1577 -12.3534 -12.1587 -11.3988
   -10.2008  -9.0251  -7.7163  -7.2075  -6.8789  -6.5661  -6.3901  -5.9919

          k = 0.0307-0.5725 0.0000 ( 18166 PWs)   bands (ev):

   -25.1654 -24.3281 -23.7466 -23.4248 -13.2529 -12.3406 -11.9550 -11.1682
   -10.0971  -9.0559  -8.0243  -7.3533  -6.8864  -6.6573  -6.3609  -5.9559

          k = 0.2575-0.1328 0.0000 ( 18109 PWs)   bands (ev):

   -25.2404 -24.5116 -23.6981 -23.1181 -12.9997 -12.4843 -12.3121 -11.4792
   -10.1806  -8.9456  -7.6875  -7.2716  -6.9264  -6.4964  -6.2611  -5.9626

          k = 0.2421 0.1535 0.0000 ( 18132 PWs)   bands (ev):

   -25.2032 -24.4763 -23.7492 -23.1803 -12.8376 -12.4970 -12.2897 -11.4755
   -10.0822  -8.9185  -7.8583  -7.4002  -6.9108  -6.5444  -6.2703  -5.8958

          k = 0.2882-0.7053 0.0000 ( 18147 PWs)   bands (ev):

   -25.1107 -24.3523 -23.8236 -23.3978 -13.0633 -12.3626 -12.0823 -11.2482
    -9.9533  -8.9127  -8.1675  -7.5830  -6.9117  -6.6539  -6.2220  -5.8771

          k = 0.2728-0.4190 0.0000 ( 18128 PWs)   bands (ev):

   -25.1552 -24.3926 -23.7807 -23.3159 -13.1601 -12.4484 -12.0524 -11.2758
   -10.0605  -8.9999  -7.8803  -7.5176  -6.9270  -6.6105  -6.2087  -5.9263

          k =-0.5150 0.2656 0.0000 ( 18184 PWs)   bands (ev):

   -25.1452 -24.4462 -23.8100 -23.2226 -12.9996 -12.5385 -12.2347 -11.3895
   -10.0494  -8.9211  -7.8734  -7.4559  -6.9600  -6.5298  -6.1654  -5.9180

          k =-0.5303 0.5518 0.0000 ( 18128 PWs)   bands (ev):

   -25.0995 -24.4106 -23.8605 -23.2934 -12.8837 -12.5077 -12.2328 -11.3490
    -9.9219  -8.8784  -8.0469  -7.6655  -6.9467  -6.5833  -6.1434  -5.8430

          k =-0.4843-0.3070 0.0000 ( 18166 PWs)   bands (ev):

   -25.0482 -24.3774 -23.9060 -23.3725 -12.6834 -12.5215 -12.2516 -11.3412
    -9.7936  -8.7585  -8.3314  -7.7907  -6.9165  -6.6277  -6.1408  -5.8228

     highest occupied level (ev):    -5.8228

!    total energy              =    -176.25782036 Ry

     total all-electron energy =      -611.645365 Ry
     estimated scf accuracy    <          8.9E-12 Ry

     The total energy is the sum of the following terms:
     one-electron contribution =    -671.37274915 Ry
     hartree contribution      =     343.51027567 Ry
     xc contribution           =     -35.69213129 Ry
     ewald contribution        =     225.64928748 Ry
     one-center paw contrib.   =     -38.35250307 Ry

     convergence has been achieved in  11 iterations

     negative rho (up, down):  4.912E-04 0.000E+00

     Forces acting on atoms (cartesian axes, Ry/au):

     atom    1 type  1   force =    -0.08511141   -0.03677527   -0.00022530
     atom    2 type  1   force =    -0.02625064   -0.01547540    0.02678695
     atom    3 type  1   force =     0.00225263    0.03481748   -0.00821440
     atom    4 type  1   force =    -0.00151260    0.02708884   -0.02163998
     atom    5 type  1   force =    -0.04804308   -0.03215962   -0.01982125
     atom    6 type  1   force =     0.00871888   -0.01568957   -0.01117234
     atom    7 type  1   force =    -0.00081450   -0.04418120    0.01942652
     atom    8 type  1   force =     0.00997204    0.00731978   -0.00554262
     atom    9 type  2   force =     0.17952451    0.09228111   -0.03069411
     atom   10 type  2   force =     0.03337998    0.03505575    0.02520085
     atom   11 type  2   force =     0.00654614   -0.04376245    0.02064126
     atom   12 type  2   force =    -0.07866193   -0.00851944    0.00525442

     Total force =     0.269750     Total SCF correction =     0.000004
     Energy error            =      1.6E-02 Ry
     Gradient error          =      1.8E-01 Ry/Bohr

     number of scf cycles    =  10
     number of bfgs steps    =   8

     energy             old  =    -176.2422320060 Ry
     energy             new  =    -176.2578203638 Ry

     CASE: energy            _new < energy            _old

     new trust radius        =       0.1324895981 bohr
     new conv_thr            =            1.0E-10 Ry


ATOMIC_POSITIONS (angstrom)
H             4.1877014731        3.6006046092       11.1745721604
H             5.2435679805        4.2360170374       10.1532541489
H             3.2284672831        1.3173686636        7.9761395950
H             3.2452013197        2.6695214833        9.2141235667
H             4.1985247606        3.5594423173        8.3123114501
H             6.3520895506        4.2999207209        8.2435374195
H             3.2074714134        1.8299303571       11.1284894501
H             2.0622800288        2.9502632090       11.2144704995
O             5.1162551074        4.0438185751       11.1011116003
O             3.3593689218        2.9551483176        8.2866732151
O             5.4175758167        4.5914784408        8.2745898989
O             3.0168827949        2.7645930268       10.9604130732



     Writing config-only to output data dir ./output/f-BH.save/
     NEW-OLD atomic charge density approx. for the potential

     negative rho (up, down):  4.798E-04 0.000E+00

     total cpu time spent up to now is      915.1 secs

     per-process dynamical memory:   210.2 Mb

     Self-consistent Calculation

     iteration #  1     ecut=    60.00 Ry     beta= 0.70
     Davidson diagonalization with overlap
     ethr =  1.00E-06,  avg # of iterations =  8.7

     negative rho (up, down):  4.881E-04 0.000E+00

     total cpu time spent up to now is      927.8 secs

     total energy              =    -176.27523062 Ry
     estimated scf accuracy    <       0.00690344 Ry

     iteration #  2     ecut=    60.00 Ry     beta= 0.70
     Davidson diagonalization with overlap
     ethr =  2.16E-05,  avg # of iterations =  2.7

     negative rho (up, down):  4.906E-04 0.000E+00

     total cpu time spent up to now is      933.3 secs

     total energy              =    -176.27677691 Ry
     estimated scf accuracy    <       0.00121748 Ry

     iteration #  3     ecut=    60.00 Ry     beta= 0.70
     Davidson diagonalization with overlap
     ethr =  3.80E-06,  avg # of iterations =  3.4

     negative rho (up, down):  4.905E-04 0.000E+00

     total cpu time spent up to now is      938.8 secs

     total energy              =    -176.27705147 Ry
     estimated scf accuracy    <       0.00012600 Ry

     iteration #  4     ecut=    60.00 Ry     beta= 0.70
     Davidson diagonalization with overlap
     ethr =  3.94E-07,  avg # of iterations =  3.4

     negative rho (up, down):  4.907E-04 0.000E+00

     total cpu time spent up to now is      944.0 secs

     total energy              =    -176.27707585 Ry
     estimated scf accuracy    <       0.00001010 Ry

     iteration #  5     ecut=    60.00 Ry     beta= 0.70
     Davidson diagonalization with overlap
     ethr =  3.16E-08,  avg # of iterations =  2.9

     negative rho (up, down):  4.907E-04 0.000E+00

     total cpu time spent up to now is      949.6 secs

     total energy              =    -176.27707814 Ry
     estimated scf accuracy    <       0.00000133 Ry

     iteration #  6     ecut=    60.00 Ry     beta= 0.70
     Davidson diagonalization with overlap
     ethr =  4.17E-09,  avg # of iterations =  2.8

     negative rho (up, down):  4.908E-04 0.000E+00

     total cpu time spent up to now is      954.8 secs

     total energy              =    -176.27707836 Ry
     estimated scf accuracy    <       0.00000009 Ry

     iteration #  7     ecut=    60.00 Ry     beta= 0.70
     Davidson diagonalization with overlap
     ethr =  2.66E-10,  avg # of iterations =  2.8

     negative rho (up, down):  4.908E-04 0.000E+00

     total cpu time spent up to now is      960.4 secs

     total energy              =    -176.27707838 Ry
     estimated scf accuracy    <       0.00000001 Ry

     iteration #  8     ecut=    60.00 Ry     beta= 0.70
     Davidson diagonalization with overlap
     ethr =  4.40E-11,  avg # of iterations =  2.3

     negative rho (up, down):  4.908E-04 0.000E+00

     total cpu time spent up to now is      965.9 secs

     total energy              =    -176.27707839 Ry
     estimated scf accuracy    <          6.4E-10 Ry

     iteration #  9     ecut=    60.00 Ry     beta= 0.70
     Davidson diagonalization with overlap
     ethr =  2.01E-12,  avg # of iterations =  3.0

     negative rho (up, down):  4.908E-04 0.000E+00

     total cpu time spent up to now is      972.1 secs

     total energy              =    -176.27707839 Ry
     estimated scf accuracy    <          2.3E-10 Ry

     iteration # 10     ecut=    60.00 Ry     beta= 0.70
     Davidson diagonalization with overlap
     ethr =  7.30E-13,  avg # of iterations =  2.5

     negative rho (up, down):  4.908E-04 0.000E+00

     total cpu time spent up to now is      977.4 secs

     End of self-consistent calculation

          k = 0.0000 0.0000 0.0000 ( 18047 PWs)   bands (ev):

   -25.1866 -24.6347 -23.4622 -23.1997 -12.8394 -12.4884 -12.2568 -11.7326
   -10.2684  -9.0155  -7.5390  -7.0372  -6.8848  -6.4793  -6.3684  -6.0275

          k =-0.0153 0.2863 0.0000 ( 18132 PWs)   bands (ev):

   -25.1038 -24.5198 -23.5686 -23.3679 -12.9900 -12.4719 -11.9905 -11.5583
   -10.1647  -9.0411  -7.7300  -7.2449  -6.8875  -6.5883  -6.3541  -6.0240

          k = 0.0307-0.5725 0.0000 ( 18166 PWs)   bands (ev):

   -25.0078 -24.3635 -23.6749 -23.5894 -13.0920 -12.4662 -11.7847 -11.3322
   -10.0540  -9.0313  -8.0452  -7.4218  -6.9066  -6.6656  -6.3182  -5.9830

          k = 0.2575-0.1328 0.0000 ( 18109 PWs)   bands (ev):

   -25.1007 -24.5709 -23.5650 -23.3025 -12.8310 -12.5879 -12.1655 -11.6314
   -10.1415  -8.9788  -7.6899  -7.2949  -6.9350  -6.5109  -6.2432  -5.9955

          k = 0.2421 0.1535 0.0000 ( 18132 PWs)   bands (ev):

   -25.0703 -24.5289 -23.6142 -23.3619 -12.8090 -12.4563 -12.1528 -11.6346
   -10.0383  -8.9305  -7.8724  -7.4378  -6.9116  -6.5560  -6.2475  -5.9437

          k = 0.2882-0.7053 0.0000 ( 18147 PWs)   bands (ev):

   -24.9656 -24.3851 -23.7005 -23.5993 -12.9748 -12.4622 -11.8838 -11.4058
    -9.8926  -8.8799  -8.1907  -7.6609  -6.9212  -6.6573  -6.1946  -5.9167

          k = 0.2728-0.4190 0.0000 ( 18128 PWs)   bands (ev):

   -25.0026 -24.4433 -23.6552 -23.5139 -12.9983 -12.5756 -11.8831 -11.4373
   -10.0082  -8.9926  -7.9022  -7.5642  -6.9391  -6.6212  -6.1825  -5.9547

          k =-0.5150 0.2656 0.0000 ( 18184 PWs)   bands (ev):

   -24.9986 -24.5036 -23.6699 -23.4221 -12.8348 -12.6700 -12.0697 -11.5405
    -9.9957  -8.9324  -7.8924  -7.4893  -6.9731  -6.5407  -6.1428  -5.9421

          k =-0.5303 0.5518 0.0000 ( 18128 PWs)   bands (ev):

   -24.9607 -24.4572 -23.7153 -23.4967 -12.8301 -12.5797 -12.0222 -11.5092
    -9.8581  -8.8613  -8.0790  -7.7152  -6.9531  -6.5894  -6.1210  -5.8851

          k =-0.4843-0.3070 0.0000 ( 18166 PWs)   bands (ev):

   -24.9190 -24.4048 -23.7578 -23.5837 -12.8053 -12.4335 -12.0486 -11.4930
    -9.7105  -8.7161  -8.3594  -7.8787  -6.9203  -6.6289  -6.1258  -5.8733

     highest occupied level (ev):    -5.8733

!    total energy              =    -176.27707839 Ry

     total all-electron energy =      -611.664623 Ry
     estimated scf accuracy    <          8.1E-12 Ry

     The total energy is the sum of the following terms:
     one-electron contribution =    -671.69229951 Ry
     hartree contribution      =     343.67096469 Ry
     xc contribution           =     -35.69083407 Ry
     ewald contribution        =     225.78658974 Ry
     one-center paw contrib.   =     -38.35149924 Ry

     convergence has been achieved in  10 iterations

     negative rho (up, down):  4.908E-04 0.000E+00

     Forces acting on atoms (cartesian axes, Ry/au):

     atom    1 type  1   force =     0.02846957    0.01247491   -0.00220242
     atom    2 type  1   force =    -0.00594042    0.00091561   -0.02106226
     atom    3 type  1   force =     0.00498896    0.04804888   -0.01448382
     atom    4 type  1   force =    -0.00575965    0.01338600    0.01927851
     atom    5 type  1   force =    -0.03319913   -0.02200808   -0.01906523
     atom    6 type  1   force =     0.01453942   -0.01329007   -0.01172106
     atom    7 type  1   force =    -0.00931702   -0.03664341    0.01973967
     atom    8 type  1   force =     0.00496128    0.00340820   -0.00300216
     atom    9 type  2   force =     0.01902722    0.00868093    0.02043815
     atom   10 type  2   force =     0.02131712    0.03703444   -0.01622450
     atom   11 type  2   force =    -0.00117110   -0.05855831    0.02405698
     atom   12 type  2   force =    -0.03791626    0.00655090    0.00424812

     Total force =     0.131796     Total SCF correction =     0.000003
     Energy error            =      1.9E-02 Ry
     Gradient error          =      5.9E-02 Ry/Bohr

     number of scf cycles    =  11
     number of bfgs steps    =   9

     energy             old  =    -176.2578203638 Ry
     energy             new  =    -176.2770783858 Ry

     CASE: energy            _new < energy            _old

     new trust radius        =       0.1064669998 bohr
     new conv_thr            =            1.0E-10 Ry


ATOMIC_POSITIONS (angstrom)
H             4.2236194056        3.6057910683       11.1841083163
H             5.2369339637        4.2355736036       10.1419114712
H             3.2516558069        1.3279793587        7.9611742178
H             3.2413523361        2.7013136090        9.2297265465
H             4.1689465926        3.5334568854        8.2737920942
H             6.3706618800        4.2910485277        8.2213622957
H             3.1755629876        1.8043521128       11.1672424015
H             2.0568987497        2.9650793743       11.2157843541
O             5.1448562266        4.0504976798       11.1001001914
O             3.3421707079        2.9672584484        8.2888820036
O             5.4284997538        4.5798662430        8.2990651954
O             2.9942280404        2.7558898471       10.9565369902



     Writing config-only to output data dir ./output/f-BH.save/
     NEW-OLD atomic charge density approx. for the potential

     negative rho (up, down):  4.713E-04 0.000E+00

     total cpu time spent up to now is      990.1 secs

     per-process dynamical memory:   210.2 Mb

     Self-consistent Calculation

     iteration #  1     ecut=    60.00 Ry     beta= 0.70
     Davidson diagonalization with overlap
     ethr =  1.00E-06,  avg # of iterations =  7.0

     negative rho (up, down):  4.810E-04 0.000E+00

     total cpu time spent up to now is     1002.0 secs

     total energy              =    -176.29076399 Ry
     estimated scf accuracy    <       0.00287150 Ry

     iteration #  2     ecut=    60.00 Ry     beta= 0.70
     Davidson diagonalization with overlap
     ethr =  8.97E-06,  avg # of iterations =  2.0

     negative rho (up, down):  4.845E-04 0.000E+00

     total cpu time spent up to now is     1007.4 secs

     total energy              =    -176.29127521 Ry
     estimated scf accuracy    <       0.00035924 Ry

     iteration #  3     ecut=    60.00 Ry     beta= 0.70
     Davidson diagonalization with overlap
     ethr =  1.12E-06,  avg # of iterations =  2.0

     negative rho (up, down):  4.851E-04 0.000E+00

     total cpu time spent up to now is     1013.0 secs

     total energy              =    -176.29135568 Ry
     estimated scf accuracy    <       0.00004759 Ry

     iteration #  4     ecut=    60.00 Ry     beta= 0.70
     Davidson diagonalization with overlap
     ethr =  1.49E-07,  avg # of iterations =  2.1

     negative rho (up, down):  4.853E-04 0.000E+00

     total cpu time spent up to now is     1018.2 secs

     total energy              =    -176.29136343 Ry
     estimated scf accuracy    <       0.00000221 Ry

     iteration #  5     ecut=    60.00 Ry     beta= 0.70
     Davidson diagonalization with overlap
     ethr =  6.91E-09,  avg # of iterations =  2.8

     negative rho (up, down):  4.853E-04 0.000E+00

     total cpu time spent up to now is     1023.9 secs

     total energy              =    -176.29136382 Ry
     estimated scf accuracy    <       0.00000043 Ry

     iteration #  6     ecut=    60.00 Ry     beta= 0.70
     Davidson diagonalization with overlap
     ethr =  1.35E-09,  avg # of iterations =  2.0

     negative rho (up, down):  4.853E-04 0.000E+00

     total cpu time spent up to now is     1029.2 secs

     total energy              =    -176.29136389 Ry
     estimated scf accuracy    <       0.00000002 Ry

     iteration #  7     ecut=    60.00 Ry     beta= 0.70
     Davidson diagonalization with overlap
     ethr =  7.60E-11,  avg # of iterations =  3.9

     negative rho (up, down):  4.853E-04 0.000E+00

     total cpu time spent up to now is     1035.7 secs

     total energy              =    -176.29136390 Ry
     estimated scf accuracy    <       0.00000002 Ry

     iteration #  8     ecut=    60.00 Ry     beta= 0.70
     Davidson diagonalization with overlap
     ethr =  6.27E-11,  avg # of iterations =  3.2

     negative rho (up, down):  4.853E-04 0.000E+00

     total cpu time spent up to now is     1040.9 secs

     total energy              =    -176.29136390 Ry
     estimated scf accuracy    <          6.9E-10 Ry

     iteration #  9     ecut=    60.00 Ry     beta= 0.70
     Davidson diagonalization with overlap
     ethr =  2.15E-12,  avg # of iterations =  3.9

     negative rho (up, down):  4.853E-04 0.000E+00

     total cpu time spent up to now is     1047.7 secs

     total energy              =    -176.29136390 Ry
     estimated scf accuracy    <          4.8E-10 Ry

     iteration # 10     ecut=    60.00 Ry     beta= 0.70
     Davidson diagonalization with overlap
     ethr =  1.49E-12,  avg # of iterations =  2.7

     negative rho (up, down):  4.853E-04 0.000E+00

     total cpu time spent up to now is     1053.0 secs

     End of self-consistent calculation

          k = 0.0000 0.0000 0.0000 ( 18047 PWs)   bands (ev):

   -24.9729 -24.4148 -23.4620 -23.1587 -12.6319 -12.2169 -12.0096 -11.6279
   -10.2405  -8.9557  -7.5658  -7.0411  -6.7846  -6.3869  -6.3444  -6.0165

          k =-0.0153 0.2863 0.0000 ( 18132 PWs)   bands (ev):

   -24.8779 -24.2780 -23.5927 -23.3325 -12.7924 -12.2392 -11.7618 -11.4160
   -10.1146  -8.9590  -7.7492  -7.2594  -6.7998  -6.5036  -6.3198  -6.0056

          k = 0.0307-0.5725 0.0000 ( 18166 PWs)   bands (ev):

   -24.7618 -24.0366 -23.7893 -23.5648 -12.9009 -12.2675 -11.5610 -11.1842
    -9.9656  -8.9212  -8.0503  -7.4753  -6.8296  -6.5731  -6.2755  -5.9609

          k = 0.2575-0.1328 0.0000 ( 18109 PWs)   bands (ev):

   -24.8704 -24.3311 -23.5858 -23.2794 -12.6096 -12.3516 -11.9201 -11.4946
   -10.0973  -8.9051  -7.7439  -7.3164  -6.8316  -6.4197  -6.2311  -5.9616

          k = 0.2421 0.1535 0.0000 ( 18132 PWs)   bands (ev):

   -24.8426 -24.2847 -23.6352 -23.3330 -12.6033 -12.1570 -11.9550 -11.5496
    -9.9882  -8.8373  -7.9291  -7.4434  -6.7943  -6.4294  -6.2430  -5.9380

          k = 0.2882-0.7053 0.0000 ( 18147 PWs)   bands (ev):

   -24.7135 -24.0770 -23.7819 -23.5942 -12.7786 -12.2232 -11.6861 -11.2902
    -9.7947  -8.7425  -8.2458  -7.7151  -6.8219  -6.5368  -6.1710  -5.9021

          k = 0.2728-0.4190 0.0000 ( 18128 PWs)   bands (ev):

   -24.7500 -24.1657 -23.7095 -23.5131 -12.7903 -12.3668 -11.6454 -11.2868
    -9.9251  -8.8873  -7.9571  -7.6163  -6.8456  -6.5272  -6.1580  -5.9199

          k =-0.5150 0.2656 0.0000 ( 18184 PWs)   bands (ev):

   -24.7398 -24.2376 -23.7163 -23.4304 -12.6012 -12.4531 -11.8290 -11.3832
    -9.9277  -8.8340  -7.9759  -7.5475  -6.8687  -6.4523  -6.1255  -5.8946

          k =-0.5303 0.5518 0.0000 ( 18128 PWs)   bands (ev):

   -24.7013 -24.1807 -23.7638 -23.5068 -12.6109 -12.3380 -11.8009 -11.3993
    -9.7705  -8.7299  -8.1748  -7.7679  -6.8387  -6.4708  -6.1112  -5.8600

          k =-0.4843-0.3070 0.0000 ( 18166 PWs)   bands (ev):

   -24.6581 -24.1088 -23.8133 -23.6007 -12.5982 -12.1087 -11.9140 -11.4216
    -9.5989  -8.5505  -8.4479  -7.9520  -6.7971  -6.4833  -6.1243  -5.8676

     highest occupied level (ev):    -5.8600

!    total energy              =    -176.29136390 Ry

     total all-electron energy =      -611.678909 Ry
     estimated scf accuracy    <          1.0E-11 Ry

     The total energy is the sum of the following terms:
     one-electron contribution =    -671.82795902 Ry
     hartree contribution      =     343.83551079 Ry
     xc contribution           =     -35.65764872 Ry
     ewald contribution        =     225.71029997 Ry
     one-center paw contrib.   =     -38.35156692 Ry

     convergence has been achieved in  10 iterations

     negative rho (up, down):  4.853E-04 0.000E+00

     Forces acting on atoms (cartesian axes, Ry/au):

     atom    1 type  1   force =     0.02467094    0.01062830    0.00023474
     atom    2 type  1   force =    -0.00163569    0.00208794   -0.01759167
     atom    3 type  1   force =     0.00155575   -0.00060701    0.00773749
     atom    4 type  1   force =    -0.00601283    0.01276894    0.01411888
     atom    5 type  1   force =    -0.00282216    0.00005375   -0.01418391
     atom    6 type  1   force =     0.00069769   -0.01284472   -0.00682177
     atom    7 type  1   force =    -0.01629103   -0.00041278    0.00888511
     atom    8 type  1   force =    -0.00976285    0.00569805   -0.00026992
     atom    9 type  2   force =     0.00664049    0.00647908    0.01449520
     atom   10 type  2   force =    -0.00805597    0.00968019   -0.01499847
     atom   11 type  2   force =     0.01373176   -0.00584337    0.00009930
     atom   12 type  2   force =    -0.00271612   -0.02768837    0.00829503

     Total force =     0.064329     Total SCF correction =     0.000006
     Energy error            =      1.4E-02 Ry
     Gradient error          =      2.8E-02 Ry/Bohr

     number of scf cycles    =  12
     number of bfgs steps    =  10

     energy             old  =    -176.2770783858 Ry
     energy             new  =    -176.2913639044 Ry

     CASE: energy            _new < energy            _old

     new trust radius        =       0.1946054997 bohr
     new conv_thr            =            1.0E-10 Ry


ATOMIC_POSITIONS (angstrom)
H             4.3084849124        3.6219085727       11.2014006728
H             5.2250225940        4.2334511648       10.1261340302
H             3.2956227949        1.3233061995        7.9494813996
H             3.2301870260        2.7676747269        9.2625272896
H             4.1274851797        3.4938287072        8.1939318984
H             6.3971517092        4.2701241070        8.1776949980
H             3.1107815146        1.7684729860       11.2388042158
H             2.0349443093        3.0020222785       11.2192064970
O             5.1955629088        4.0674353419       11.0931546636
O             3.2905142151        2.9825618332        8.2890105944
O             5.4656781488        4.5803468097        8.3304603584
O             2.9539511381        2.7069740305       10.9578794601



     Writing config-only to output data dir ./output/f-BH.save/
     NEW-OLD atomic charge density approx. for the potential

     negative rho (up, down):  4.497E-04 0.000E+00

     total cpu time spent up to now is     1065.7 secs

     per-process dynamical memory:   210.2 Mb

     Self-consistent Calculation

     iteration #  1     ecut=    60.00 Ry     beta= 0.70
     Davidson diagonalization with overlap
     ethr =  1.00E-06,  avg # of iterations =  8.3

     negative rho (up, down):  4.775E-04 0.000E+00

     total cpu time spent up to now is     1079.8 secs

     total energy              =    -176.30183151 Ry
     estimated scf accuracy    <       0.00937485 Ry

     iteration #  2     ecut=    60.00 Ry     beta= 0.70
     Davidson diagonalization with overlap
     ethr =  2.93E-05,  avg # of iterations =  2.0

     negative rho (up, down):  4.839E-04 0.000E+00

     total cpu time spent up to now is     1085.2 secs

     total energy              =    -176.30334774 Ry
     estimated scf accuracy    <       0.00156163 Ry

     iteration #  3     ecut=    60.00 Ry     beta= 0.70
     Davidson diagonalization with overlap
     ethr =  4.88E-06,  avg # of iterations =  2.8

     negative rho (up, down):  4.857E-04 0.000E+00

     total cpu time spent up to now is     1090.8 secs

     total energy              =    -176.30371606 Ry
     estimated scf accuracy    <       0.00027981 Ry

     iteration #  4     ecut=    60.00 Ry     beta= 0.70
     Davidson diagonalization with overlap
     ethr =  8.74E-07,  avg # of iterations =  3.1

     negative rho (up, down):  4.863E-04 0.000E+00

     total cpu time spent up to now is     1096.1 secs

     total energy              =    -176.30376944 Ry
     estimated scf accuracy    <       0.00000953 Ry

     iteration #  5     ecut=    60.00 Ry     beta= 0.70
     Davidson diagonalization with overlap
     ethr =  2.98E-08,  avg # of iterations =  3.0

     negative rho (up, down):  4.863E-04 0.000E+00

     total cpu time spent up to now is     1102.0 secs

     total energy              =    -176.30377136 Ry
     estimated scf accuracy    <       0.00000278 Ry

     iteration #  6     ecut=    60.00 Ry     beta= 0.70
     Davidson diagonalization with overlap
     ethr =  8.68E-09,  avg # of iterations =  2.3

     negative rho (up, down):  4.863E-04 0.000E+00

     total cpu time spent up to now is     1107.2 secs

     total energy              =    -176.30377173 Ry
     estimated scf accuracy    <       0.00000020 Ry

     iteration #  7     ecut=    60.00 Ry     beta= 0.70
     Davidson diagonalization with overlap
     ethr =  6.25E-10,  avg # of iterations =  3.8

     negative rho (up, down):  4.863E-04 0.000E+00

     total cpu time spent up to now is     1113.5 secs

     total energy              =    -176.30377181 Ry
     estimated scf accuracy    <       0.00000007 Ry

     iteration #  8     ecut=    60.00 Ry     beta= 0.70
     Davidson diagonalization with overlap
     ethr =  2.07E-10,  avg # of iterations =  2.7

     negative rho (up, down):  4.863E-04 0.000E+00

     total cpu time spent up to now is     1118.8 secs

     total energy              =    -176.30377183 Ry
     estimated scf accuracy    <          1.9E-09 Ry

     iteration #  9     ecut=    60.00 Ry     beta= 0.70
     Davidson diagonalization with overlap
     ethr =  5.80E-12,  avg # of iterations =  3.9

     negative rho (up, down):  4.863E-04 0.000E+00

     total cpu time spent up to now is     1125.6 secs

     total energy              =    -176.30377183 Ry
     estimated scf accuracy    <          1.0E-09 Ry

     iteration # 10     ecut=    60.00 Ry     beta= 0.70
     Davidson diagonalization with overlap
     ethr =  3.27E-12,  avg # of iterations =  2.0

     negative rho (up, down):  4.863E-04 0.000E+00

     total cpu time spent up to now is     1130.6 secs

     total energy              =    -176.30377183 Ry
     estimated scf accuracy    <          1.1E-10 Ry

     iteration # 11     ecut=    60.00 Ry     beta= 0.70
     Davidson diagonalization with overlap
     ethr =  3.48E-13,  avg # of iterations =  3.1

     negative rho (up, down):  4.863E-04 0.000E+00

     total cpu time spent up to now is     1137.0 secs

     End of self-consistent calculation

          k = 0.0000 0.0000 0.0000 ( 18047 PWs)   bands (ev):

   -24.7349 -24.1877 -23.5077 -23.0273 -12.3431 -11.9651 -11.7944 -11.4283
   -10.1368  -8.8284  -7.6127  -7.0194  -6.5340  -6.4193  -6.2311  -5.8757

          k =-0.0153 0.2863 0.0000 ( 18132 PWs)   bands (ev):

   -24.6142 -24.0465 -23.6548 -23.2095 -12.5245 -11.9729 -11.6214 -11.2086
    -9.9629  -8.7855  -7.7650  -7.2504  -6.6249  -6.4138  -6.2692  -5.8692

          k = 0.0307-0.5725 0.0000 ( 18166 PWs)   bands (ev):

   -24.4374 -23.8876 -23.7358 -23.5306 -12.6364 -12.0328 -11.4333 -11.0206
    -9.7353  -8.7107  -7.9801  -7.5500  -6.6921  -6.4700  -6.2082  -5.8245

          k = 0.2575-0.1328 0.0000 ( 18109 PWs)   bands (ev):

   -24.6005 -24.0779 -23.6766 -23.1632 -12.3979 -12.0604 -11.6842 -11.2758
    -9.9338  -8.7493  -7.8487  -7.3273  -6.6330  -6.3349  -6.2015  -5.7875

          k = 0.2421 0.1535 0.0000 ( 18132 PWs)   bands (ev):

   -24.5866 -24.0587 -23.6965 -23.1882 -12.3386 -11.9211 -11.7670 -11.3929
    -9.8423  -8.6727  -7.9856  -7.3825  -6.5365  -6.3185  -6.2361  -5.8338

          k = 0.2882-0.7053 0.0000 ( 18147 PWs)   bands (ev):

   -24.3837 -23.9492 -23.7882 -23.4750 -12.5293 -11.9786 -11.5632 -11.1492
    -9.5610  -8.5014  -8.2844  -7.7190  -6.6400  -6.3698  -6.1696  -5.7850

          k = 0.2728-0.4190 0.0000 ( 18128 PWs)   bands (ev):

   -24.4108 -23.9422 -23.8081 -23.4235 -12.5628 -12.0968 -11.4735 -11.0844
    -9.6766  -8.6648  -8.0526  -7.6663  -6.6724  -6.4380  -6.1121  -5.7578

          k =-0.5150 0.2656 0.0000 ( 18184 PWs)   bands (ev):

   -24.3843 -23.9433 -23.9050 -23.3454 -12.4501 -12.1420 -11.5623 -11.1541
    -9.6687  -8.6088  -8.1854  -7.6237  -6.6753  -6.3801  -6.0753  -5.7028

          k =-0.5303 0.5518 0.0000 ( 18128 PWs)   bands (ev):

   -24.3516 -23.9752 -23.8777 -23.3850 -12.4123 -12.0637 -11.6094 -11.2239
    -9.5094  -8.4863  -8.3362  -7.7924  -6.6264  -6.3319  -6.1122  -5.7143

          k =-0.4843-0.3070 0.0000 ( 18166 PWs)   bands (ev):

   -24.3099 -24.0202 -23.8399 -23.4311 -12.3484 -11.8605 -11.7780 -11.3267
    -9.3326  -8.6589  -8.1558  -7.9776  -6.5403  -6.2539  -6.2066  -5.7807

     highest occupied level (ev):    -5.7028

!    total energy              =    -176.30377183 Ry

     total all-electron energy =      -611.691317 Ry
     estimated scf accuracy    <          3.1E-11 Ry

     The total energy is the sum of the following terms:
     one-electron contribution =    -671.62279417 Ry
     hartree contribution      =     343.88849068 Ry
     xc contribution           =     -35.64730533 Ry
     ewald contribution        =     225.42932871 Ry
     one-center paw contrib.   =     -38.35149171 Ry

     convergence has been achieved in  11 iterations

     negative rho (up, down):  4.863E-04 0.000E+00

     Forces acting on atoms (cartesian axes, Ry/au):

     atom    1 type  1   force =    -0.00223496   -0.00501986    0.00829558
     atom    2 type  1   force =     0.00827287    0.00800719   -0.02243557
     atom    3 type  1   force =    -0.00589528   -0.01253928    0.02162192
     atom    4 type  1   force =    -0.00649241    0.00955157   -0.00278972
     atom    5 type  1   force =     0.01313900    0.01376081   -0.00804263
     atom    6 type  1   force =    -0.00395436   -0.01411277    0.00118365
     atom    7 type  1   force =    -0.01741890    0.00243546    0.00122925
     atom    8 type  1   force =    -0.00353368   -0.00282298   -0.00311625
     atom    9 type  2   force =     0.00691447    0.00916441    0.01215630
     atom   10 type  2   force =    -0.01705228   -0.00354131   -0.00086264
     atom   11 type  2   force =     0.01587883    0.00569943   -0.01728637
     atom   12 type  2   force =     0.01237671   -0.01058267    0.01004646

     Total force =     0.063661     Total SCF correction =     0.000009
     Energy error            =      1.2E-02 Ry
     Gradient error          =      2.2E-02 Ry/Bohr

     number of scf cycles    =  13
     number of bfgs steps    =  11

     energy             old  =    -176.2913639044 Ry
     energy             new  =    -176.3037718270 Ry

     CASE: energy            _new < energy            _old

     new trust radius        =       0.0935303528 bohr
     new conv_thr            =            1.0E-10 Ry


ATOMIC_POSITIONS (angstrom)
H             4.3418155816        3.6243368315       11.2143667258
H             5.2260603350        4.2380504845       10.1118207826
H             3.3097280213        1.3200346631        7.9562716514
H             3.2220227383        2.8001506601        9.2725068452
H             4.1155073501        3.4832546012        8.1553710627
H             6.4074413597        4.2536549425        8.1609963577
H             3.0750019772        1.7524687986       11.2690260575
H             2.0266998671        3.0145141707       11.2180746308
O             5.2185741220        4.0773439131       11.0914038246
O             3.2625238388        2.9890512762        8.2920077467
O             5.4880970690        4.5775898677        8.3337702956
O             2.9419141906        2.6876565489       10.9640700973



     Writing config-only to output data dir ./output/f-BH.save/
     NEW-OLD atomic charge density approx. for the potential

     negative rho (up, down):  4.759E-04 0.000E+00

     total cpu time spent up to now is     1149.7 secs

     per-process dynamical memory:   210.2 Mb

     Self-consistent Calculation

     iteration #  1     ecut=    60.00 Ry     beta= 0.70
     Davidson diagonalization with overlap
     ethr =  1.00E-06,  avg # of iterations =  6.1

     negative rho (up, down):  4.833E-04 0.000E+00

     total cpu time spent up to now is     1161.2 secs

     total energy              =    -176.30695778 Ry
     estimated scf accuracy    <       0.00214425 Ry

     iteration #  2     ecut=    60.00 Ry     beta= 0.70
     Davidson diagonalization with overlap
     ethr =  6.70E-06,  avg # of iterations =  2.1

     negative rho (up, down):  4.853E-04 0.000E+00

     total cpu time spent up to now is     1166.7 secs

     total energy              =    -176.30732822 Ry
     estimated scf accuracy    <       0.00044994 Ry

     iteration #  3     ecut=    60.00 Ry     beta= 0.70
     Davidson diagonalization with overlap
     ethr =  1.41E-06,  avg # of iterations =  2.2

     negative rho (up, down):  4.858E-04 0.000E+00

     total cpu time spent up to now is     1172.5 secs

     total energy              =    -176.30744143 Ry
     estimated scf accuracy    <       0.00005019 Ry

     iteration #  4     ecut=    60.00 Ry     beta= 0.70
     Davidson diagonalization with overlap
     ethr =  1.57E-07,  avg # of iterations =  2.1

     negative rho (up, down):  4.859E-04 0.000E+00

     total cpu time spent up to now is     1177.6 secs

     total energy              =    -176.30744701 Ry
     estimated scf accuracy    <       0.00000263 Ry

     iteration #  5     ecut=    60.00 Ry     beta= 0.70
     Davidson diagonalization with overlap
     ethr =  8.22E-09,  avg # of iterations =  3.4

     negative rho (up, down):  4.860E-04 0.000E+00

     total cpu time spent up to now is     1184.1 secs

     total energy              =    -176.30744779 Ry
     estimated scf accuracy    <       0.00000189 Ry

     iteration #  6     ecut=    60.00 Ry     beta= 0.70
     Davidson diagonalization with overlap
     ethr =  5.92E-09,  avg # of iterations =  2.4

     negative rho (up, down):  4.859E-04 0.000E+00

     total cpu time spent up to now is     1189.2 secs

     total energy              =    -176.30744800 Ry
     estimated scf accuracy    <       0.00000014 Ry

     iteration #  7     ecut=    60.00 Ry     beta= 0.70
     Davidson diagonalization with overlap
     ethr =  4.40E-10,  avg # of iterations =  4.1

     negative rho (up, down):  4.859E-04 0.000E+00

     total cpu time spent up to now is     1196.3 secs

     total energy              =    -176.30744807 Ry
     estimated scf accuracy    <       0.00000012 Ry

     iteration #  8     ecut=    60.00 Ry     beta= 0.70
     Davidson diagonalization with overlap
     ethr =  3.80E-10,  avg # of iterations =  2.0

     negative rho (up, down):  4.859E-04 0.000E+00

     total cpu time spent up to now is     1201.2 secs

     total energy              =    -176.30744808 Ry
     estimated scf accuracy    <       0.00000001 Ry

     iteration #  9     ecut=    60.00 Ry     beta= 0.70
     Davidson diagonalization with overlap
     ethr =  4.47E-11,  avg # of iterations =  3.2

     negative rho (up, down):  4.859E-04 0.000E+00

     total cpu time spent up to now is     1207.6 secs

     total energy              =    -176.30744809 Ry
     estimated scf accuracy    <          1.4E-09 Ry

     iteration # 10     ecut=    60.00 Ry     beta= 0.70
     Davidson diagonalization with overlap
     ethr =  4.49E-12,  avg # of iterations =  2.0

     negative rho (up, down):  4.859E-04 0.000E+00

     total cpu time spent up to now is     1212.7 secs

     total energy              =    -176.30744809 Ry
     estimated scf accuracy    <          3.8E-10 Ry

     iteration # 11     ecut=    60.00 Ry     beta= 0.70
     Davidson diagonalization with overlap
     ethr =  1.19E-12,  avg # of iterations =  2.1

     negative rho (up, down):  4.859E-04 0.000E+00

     total cpu time spent up to now is     1217.9 secs

     End of self-consistent calculation

          k = 0.0000 0.0000 0.0000 ( 18047 PWs)   bands (ev):

   -24.6352 -24.1335 -23.4203 -22.9834 -12.1916 -11.8731 -11.7088 -11.4766
   -10.0804  -8.7804  -7.5952  -6.9857  -6.4316  -6.3748  -6.1970  -5.8693

          k =-0.0153 0.2863 0.0000 ( 18132 PWs)   bands (ev):

   -24.5088 -23.9945 -23.5745 -23.1619 -12.3760 -11.9106 -11.5491 -11.2276
    -9.8951  -8.7285  -7.7407  -7.2140  -6.5610  -6.3863  -6.1959  -5.8526

          k = 0.0307-0.5725 0.0000 ( 18166 PWs)   bands (ev):

   -24.3155 -23.8321 -23.6864 -23.4719 -12.4851 -11.9857 -11.3651 -11.0420
    -9.6491  -8.6521  -7.9364  -7.5259  -6.6403  -6.4506  -6.1215  -5.8020

          k = 0.2575-0.1328 0.0000 ( 18109 PWs)   bands (ev):

   -24.4952 -24.0148 -23.5946 -23.1315 -12.2816 -11.9591 -11.5842 -11.3033
    -9.8545  -8.6924  -7.8454  -7.3099  -6.5525  -6.3236  -6.1363  -5.7635

          k = 0.2421 0.1535 0.0000 ( 18132 PWs)   bands (ev):

   -24.4923 -24.0142 -23.5985 -23.1345 -12.1958 -11.8487 -11.7054 -11.4261
    -9.7760  -8.6260  -7.9569  -7.3335  -6.4163  -6.2965  -6.1851  -5.8365

          k = 0.2882-0.7053 0.0000 ( 18147 PWs)   bands (ev):

   -24.2800 -23.8874 -23.7323 -23.4058 -12.3883 -11.9368 -11.5010 -11.1691
    -9.4767  -8.4447  -8.2553  -7.6701  -6.5688  -6.3343  -6.1022  -5.7716

          k = 0.2728-0.4190 0.0000 ( 18128 PWs)   bands (ev):

   -24.2865 -23.8822 -23.7329 -23.4008 -12.4315 -12.0245 -11.3873 -11.1032
    -9.5734  -8.5906  -8.0569  -7.6527  -6.6033  -6.4293  -6.0385  -5.7310

          k =-0.5150 0.2656 0.0000 ( 18184 PWs)   bands (ev):

   -24.2565 -23.8950 -23.8054 -23.3422 -12.3510 -12.0398 -11.4455 -11.1736
    -9.5442  -8.5242  -8.2187  -7.6468  -6.5953  -6.3818  -6.0052  -5.6692

          k =-0.5303 0.5518 0.0000 ( 18128 PWs)   bands (ev):

   -24.2474 -23.9154 -23.7915 -23.3478 -12.2993 -11.9871 -11.5238 -11.2478
    -9.3979  -8.4581  -8.2982  -7.7793  -6.5388  -6.3100  -6.0540  -5.6949

          k =-0.4843-0.3070 0.0000 ( 18166 PWs)   bands (ev):

   -24.2364 -23.9364 -23.7784 -23.3544 -12.2111 -11.8121 -11.7329 -11.3505
    -9.2391  -8.6837  -8.0578  -7.9199  -6.4230  -6.1894  -6.1852  -5.7896

     highest occupied level (ev):    -5.6692

!    total energy              =    -176.30744809 Ry

     total all-electron energy =      -611.694993 Ry
     estimated scf accuracy    <          3.6E-11 Ry

     The total energy is the sum of the following terms:
     one-electron contribution =    -670.84505082 Ry
     hartree contribution      =     343.55611142 Ry
     xc contribution           =     -35.63054920 Ry
     ewald contribution        =     224.96342867 Ry
     one-center paw contrib.   =     -38.35138814 Ry

     convergence has been achieved in  11 iterations

     negative rho (up, down):  4.859E-04 0.000E+00

     Forces acting on atoms (cartesian axes, Ry/au):

     atom    1 type  1   force =    -0.00597455   -0.00761987    0.00896477
     atom    2 type  1   force =     0.01035998    0.00654011   -0.00722259
     atom    3 type  1   force =    -0.00598239   -0.01149511    0.02224583
     atom    4 type  1   force =    -0.00591780    0.00610663   -0.00119713
     atom    5 type  1   force =    -0.00165819    0.00614198   -0.00159234
     atom    6 type  1   force =     0.00327037   -0.01484222    0.00148214
     atom    7 type  1   force =    -0.01486909    0.00315301   -0.00237047
     atom    8 type  1   force =     0.00148884   -0.00506655   -0.00450650
     atom    9 type  2   force =     0.00292815    0.01089117   -0.00380329
     atom   10 type  2   force =     0.00165194    0.00562495   -0.00674582
     atom   11 type  2   force =     0.00318018    0.00511979   -0.01706088
     atom   12 type  2   force =     0.01152256   -0.00455390    0.01180629

     Total force =     0.050158     Total SCF correction =     0.000008
     Energy error            =      3.7E-03 Ry
     Gradient error          =      2.2E-02 Ry/Bohr

     number of scf cycles    =  14
     number of bfgs steps    =  12

     energy             old  =    -176.3037718270 Ry
     energy             new  =    -176.3074480866 Ry

     CASE: energy            _new < energy            _old

     new trust radius        =       0.1112824259 bohr
     new conv_thr            =            3.7E-11 Ry


ATOMIC_POSITIONS (angstrom)
H             4.3732915622        3.6214175335       11.2348776618
H             5.2355828224        4.2482247292       10.0929851337
H             3.3195025982        1.3121152356        7.9792537488
H             3.2091394575        2.8380250630        9.2832712841
H             4.0972074518        3.4743282346        8.1146323691
H             6.4224627654        4.2246989773        8.1446392459
H             3.0261873231        1.7377548282       11.2984953591
H             2.0231748113        3.0223033423       11.2123969352
O             5.2420255191        4.0942662807       11.0847160505
O             3.2399807850        3.0038161613        8.2882133793
O             5.5112735451        4.5739667683        8.3258605751
O             2.9355578098        2.6671896040       10.9803443354



     Writing config-only to output data dir ./output/f-BH.save/
     NEW-OLD atomic charge density approx. for the potential

     negative rho (up, down):  4.736E-04 0.000E+00

     total cpu time spent up to now is     1230.6 secs

     per-process dynamical memory:   210.7 Mb

     Self-consistent Calculation

     iteration #  1     ecut=    60.00 Ry     beta= 0.70
     Davidson diagonalization with overlap
     ethr =  1.00E-06,  avg # of iterations =  6.6

     negative rho (up, down):  4.813E-04 0.000E+00

     total cpu time spent up to now is     1242.4 secs

     total energy              =    -176.31045279 Ry
     estimated scf accuracy    <       0.00256616 Ry

     iteration #  2     ecut=    60.00 Ry     beta= 0.70
     Davidson diagonalization with overlap
     ethr =  8.02E-06,  avg # of iterations =  2.1

     negative rho (up, down):  4.834E-04 0.000E+00

     total cpu time spent up to now is     1248.0 secs

     total energy              =    -176.31088755 Ry
     estimated scf accuracy    <       0.00058454 Ry

     iteration #  3     ecut=    60.00 Ry     beta= 0.70
     Davidson diagonalization with overlap
     ethr =  1.83E-06,  avg # of iterations =  2.1

     negative rho (up, down):  4.840E-04 0.000E+00

     total cpu time spent up to now is     1253.8 secs

     total energy              =    -176.31103537 Ry
     estimated scf accuracy    <       0.00005747 Ry

     iteration #  4     ecut=    60.00 Ry     beta= 0.70
     Davidson diagonalization with overlap
     ethr =  1.80E-07,  avg # of iterations =  2.0

     negative rho (up, down):  4.842E-04 0.000E+00

     total cpu time spent up to now is     1258.8 secs

     total energy              =    -176.31104017 Ry
     estimated scf accuracy    <       0.00000372 Ry

     iteration #  5     ecut=    60.00 Ry     beta= 0.70
     Davidson diagonalization with overlap
     ethr =  1.16E-08,  avg # of iterations =  3.1

     negative rho (up, down):  4.842E-04 0.000E+00

     total cpu time spent up to now is     1265.4 secs

     total energy              =    -176.31104128 Ry
     estimated scf accuracy    <       0.00000262 Ry

     iteration #  6     ecut=    60.00 Ry     beta= 0.70
     Davidson diagonalization with overlap
     ethr =  8.18E-09,  avg # of iterations =  2.0

     negative rho (up, down):  4.841E-04 0.000E+00

     total cpu time spent up to now is     1270.6 secs

     total energy              =    -176.31104163 Ry
     estimated scf accuracy    <       0.00000013 Ry

     iteration #  7     ecut=    60.00 Ry     beta= 0.70
     Davidson diagonalization with overlap
     ethr =  3.97E-10,  avg # of iterations =  4.4

     negative rho (up, down):  4.841E-04 0.000E+00

     total cpu time spent up to now is     1278.1 secs

     total energy              =    -176.31104172 Ry
     estimated scf accuracy    <       0.00000026 Ry

     iteration #  8     ecut=    60.00 Ry     beta= 0.70
     Davidson diagonalization with overlap
     ethr =  3.97E-10,  avg # of iterations =  2.4

     negative rho (up, down):  4.841E-04 0.000E+00

     total cpu time spent up to now is     1283.7 secs

     total energy              =    -176.31104174 Ry
     estimated scf accuracy    <       0.00000002 Ry

     iteration #  9     ecut=    60.00 Ry     beta= 0.70
     Davidson diagonalization with overlap
     ethr =  5.07E-11,  avg # of iterations =  3.0

     negative rho (up, down):  4.841E-04 0.000E+00

     total cpu time spent up to now is     1290.3 secs

     total energy              =    -176.31104175 Ry
     estimated scf accuracy    <          1.5E-09 Ry

     iteration # 10     ecut=    60.00 Ry     beta= 0.70
     Davidson diagonalization with overlap
     ethr =  4.57E-12,  avg # of iterations =  2.0

     negative rho (up, down):  4.841E-04 0.000E+00

     total cpu time spent up to now is     1295.6 secs

     total energy              =    -176.31104175 Ry
     estimated scf accuracy    <          6.2E-10 Ry

     iteration # 11     ecut=    60.00 Ry     beta= 0.70
     Davidson diagonalization with overlap
     ethr =  1.92E-12,  avg # of iterations =  1.0

     negative rho (up, down):  4.841E-04 0.000E+00

     total cpu time spent up to now is     1299.9 secs

     total energy              =    -176.31104175 Ry
     estimated scf accuracy    <          2.4E-10 Ry

     iteration # 12     ecut=    60.00 Ry     beta= 0.70
     Davidson diagonalization with overlap
     ethr =  7.35E-13,  avg # of iterations =  2.0

     negative rho (up, down):  4.841E-04 0.000E+00

     total cpu time spent up to now is     1305.2 secs

     End of self-consistent calculation

          k = 0.0000 0.0000 0.0000 ( 18047 PWs)   bands (ev):

   -24.5666 -24.1151 -23.3513 -22.9689 -12.1006 -11.8517 -11.6865 -11.6090
   -10.0102  -8.7201  -7.5703  -6.9551  -6.3898  -6.3139  -6.1762  -5.9110

          k =-0.0153 0.2863 0.0000 ( 18132 PWs)   bands (ev):

   -24.4343 -23.9766 -23.5153 -23.1442 -12.2639 -11.9502 -11.5506 -11.2926
    -9.8322  -8.6701  -7.7082  -7.1819  -6.5320  -6.3689  -6.1452  -5.8643

          k = 0.0307-0.5725 0.0000 ( 18166 PWs)   bands (ev):

   -24.2231 -23.7882 -23.6860 -23.4407 -12.3591 -12.0371 -11.3743 -11.0974
    -9.5923  -8.6050  -7.8869  -7.4984  -6.6275  -6.4261  -6.0651  -5.8030

          k = 0.2575-0.1328 0.0000 ( 18109 PWs)   bands (ev):

   -24.4227 -23.9867 -23.5308 -23.1291 -12.2210 -11.9635 -11.5403 -11.3841
    -9.7655  -8.6265  -7.8347  -7.2997  -6.5057  -6.3192  -6.0954  -5.7768

          k = 0.2421 0.1535 0.0000 ( 18132 PWs)   bands (ev):

   -24.4322 -24.0020 -23.5189 -23.1112 -12.1215 -11.8369 -11.7362 -11.5057
    -9.7023  -8.5688  -7.9214  -7.2920  -6.3483  -6.2682  -6.1420  -5.8897

          k = 0.2882-0.7053 0.0000 ( 18147 PWs)   bands (ev):

   -24.2169 -23.8355 -23.7120 -23.3672 -12.2896 -11.9868 -11.5117 -11.2286
    -9.4090  -8.3961  -8.2097  -7.6250  -6.5378  -6.3080  -6.0498  -5.7903

          k = 0.2728-0.4190 0.0000 ( 18128 PWs)   bands (ev):

   -24.1960 -23.8324 -23.7013 -23.4070 -12.3378 -12.0571 -11.3713 -11.1581
    -9.4841  -8.5213  -8.0447  -7.6503  -6.5756  -6.4136  -5.9947  -5.7326

          k =-0.5150 0.2656 0.0000 ( 18184 PWs)   bands (ev):

   -24.1672 -23.8468 -23.7490 -23.3727 -12.3014 -12.0493 -11.3870 -11.2365
    -9.4079  -8.4583  -8.2113  -7.6968  -6.5518  -6.3807  -5.9667  -5.6692

          k =-0.5303 0.5518 0.0000 ( 18128 PWs)   bands (ev):

   -24.1905 -23.8553 -23.7452 -23.3396 -12.2455 -12.0081 -11.5001 -11.3125
    -9.2826  -8.4337  -8.2400  -7.7805  -6.4920  -6.2940  -6.0130  -5.7139

          k =-0.4843-0.3070 0.0000 ( 18166 PWs)   bands (ev):

   -24.2101 -23.8752 -23.7294 -23.3111 -12.1470 -11.8086 -11.7881 -11.4129
    -9.1487  -8.6801  -7.9552  -7.8866  -6.3582  -6.1628  -6.1261  -5.8510

     highest occupied level (ev):    -5.6692

!    total energy              =    -176.31104175 Ry

     total all-electron energy =      -611.698587 Ry
     estimated scf accuracy    <          4.4E-12 Ry

     The total energy is the sum of the following terms:
     one-electron contribution =    -669.15094511 Ry
     hartree contribution      =     342.73526609 Ry
     xc contribution           =     -35.62080370 Ry
     ewald contribution        =     224.07649077 Ry
     one-center paw contrib.   =     -38.35104979 Ry

     convergence has been achieved in  12 iterations

     negative rho (up, down):  4.841E-04 0.000E+00

     Forces acting on atoms (cartesian axes, Ry/au):

     atom    1 type  1   force =     0.00339890   -0.00233657    0.00347420
     atom    2 type  1   force =     0.00935976    0.00383151    0.00665251
     atom    3 type  1   force =    -0.00234850    0.00355694    0.01259943
     atom    4 type  1   force =    -0.00266003    0.00552986   -0.01329758
     atom    5 type  1   force =    -0.00081368    0.00778587    0.00322485
     atom    6 type  1   force =     0.00253071   -0.00824693    0.00085077
     atom    7 type  1   force =    -0.00830325   -0.00705512   -0.00281373
     atom    8 type  1   force =     0.00303897   -0.00372254   -0.00424174
     atom    9 type  2   force =    -0.01094506    0.00491497   -0.01317602
     atom   10 type  2   force =     0.00063988    0.00080929    0.00585721
     atom   11 type  2   force =    -0.00323348   -0.01508395   -0.00690851
     atom   12 type  2   force =     0.00933579    0.01001666    0.00777861

     Total force =     0.042050     Total SCF correction =     0.000002
     Energy error            =      3.6E-03 Ry
     Gradient error          =      1.5E-02 Ry/Bohr

     number of scf cycles    =  15
     number of bfgs steps    =  13

     energy             old  =    -176.3074480866 Ry
     energy             new  =    -176.3110417465 Ry

     CASE: energy            _new < energy            _old

     new trust radius        =       0.0589164993 bohr
     new conv_thr            =            3.6E-11 Ry


ATOMIC_POSITIONS (angstrom)
H             4.3842385638        3.6162135724       11.2465208791
H             5.2483950984        4.2570226974       10.0827077541
H             3.3191598662        1.3103573309        8.0021981985
H             3.2003710888        2.8567833571        9.2787019590
H             4.0924413380        3.4801087073        8.1010839954
H             6.4290894155        4.2043497443        8.1400036558
H             2.9973927336        1.7291484684       11.3067913986
H             2.0258526585        3.0202873864       11.2056421620
O             5.2446402277        4.1063740831       11.0786983776
O             3.2302643934        3.0105597601        8.2883389864
O             5.5205728899        4.5612716325        8.3137400854
O             2.9429681771        2.6656300182       10.9952586261



     Writing config-only to output data dir ./output/f-BH.save/
     NEW-OLD atomic charge density approx. for the potential

     negative rho (up, down):  4.796E-04 0.000E+00

     total cpu time spent up to now is     1317.9 secs

     per-process dynamical memory:   210.2 Mb

     Self-consistent Calculation

     iteration #  1     ecut=    60.00 Ry     beta= 0.70
     Davidson diagonalization with overlap
     ethr =  1.00E-06,  avg # of iterations =  5.1

     negative rho (up, down):  4.817E-04 0.000E+00

     total cpu time spent up to now is     1328.2 secs

     total energy              =    -176.31327453 Ry
     estimated scf accuracy    <       0.00065855 Ry

     iteration #  2     ecut=    60.00 Ry     beta= 0.70
     Davidson diagonalization with overlap
     ethr =  2.06E-06,  avg # of iterations =  2.0

     negative rho (up, down):  4.828E-04 0.000E+00

     total cpu time spent up to now is     1333.6 secs

     total energy              =    -176.31336648 Ry
     estimated scf accuracy    <       0.00006873 Ry

     iteration #  3     ecut=    60.00 Ry     beta= 0.70
     Davidson diagonalization with overlap
     ethr =  2.15E-07,  avg # of iterations =  2.8

     negative rho (up, down):  4.831E-04 0.000E+00

     total cpu time spent up to now is     1339.4 secs

     total energy              =    -176.31338115 Ry
     estimated scf accuracy    <       0.00001859 Ry

     iteration #  4     ecut=    60.00 Ry     beta= 0.70
     Davidson diagonalization with overlap
     ethr =  5.81E-08,  avg # of iterations =  2.8

     negative rho (up, down):  4.833E-04 0.000E+00

     total cpu time spent up to now is     1344.8 secs

     total energy              =    -176.31338503 Ry
     estimated scf accuracy    <       0.00000076 Ry

     iteration #  5     ecut=    60.00 Ry     beta= 0.70
     Davidson diagonalization with overlap
     ethr =  2.37E-09,  avg # of iterations =  2.0

     negative rho (up, down):  4.833E-04 0.000E+00

     total cpu time spent up to now is     1350.4 secs

     total energy              =    -176.31338516 Ry
     estimated scf accuracy    <       0.00000012 Ry

     iteration #  6     ecut=    60.00 Ry     beta= 0.70
     Davidson diagonalization with overlap
     ethr =  3.90E-10,  avg # of iterations =  2.1

     negative rho (up, down):  4.833E-04 0.000E+00

     total cpu time spent up to now is     1355.9 secs

     total energy              =    -176.31338518 Ry
     estimated scf accuracy    <          6.2E-09 Ry

     iteration #  7     ecut=    60.00 Ry     beta= 0.70
     Davidson diagonalization with overlap
     ethr =  1.93E-11,  avg # of iterations =  3.9

     negative rho (up, down):  4.833E-04 0.000E+00

     total cpu time spent up to now is     1361.9 secs

     total energy              =    -176.31338518 Ry
     estimated scf accuracy    <          1.4E-09 Ry

     iteration #  8     ecut=    60.00 Ry     beta= 0.70
     Davidson diagonalization with overlap
     ethr =  4.39E-12,  avg # of iterations =  3.0

     negative rho (up, down):  4.833E-04 0.000E+00

     total cpu time spent up to now is     1367.4 secs

     total energy              =    -176.31338518 Ry
     estimated scf accuracy    <          1.0E-10 Ry

     iteration #  9     ecut=    60.00 Ry     beta= 0.70
     Davidson diagonalization with overlap
     ethr =  3.25E-13,  avg # of iterations =  2.7

     negative rho (up, down):  4.833E-04 0.000E+00

     total cpu time spent up to now is     1373.0 secs

     End of self-consistent calculation

          k = 0.0000 0.0000 0.0000 ( 18047 PWs)   bands (ev):

   -24.5468 -24.1444 -23.3230 -22.9926 -12.0216 -11.8967 -11.7442 -11.7134
    -9.9874  -8.7388  -7.5388  -6.9551  -6.3821  -6.2919  -6.2011  -6.0031

          k =-0.0153 0.2863 0.0000 ( 18132 PWs)   bands (ev):

   -24.4109 -24.0083 -23.4932 -23.1640 -12.1954 -12.0342 -11.5900 -11.3617
    -9.8122  -8.6945  -7.6762  -7.1910  -6.5223  -6.3955  -6.1368  -5.9259

          k = 0.0307-0.5725 0.0000 ( 18166 PWs)   bands (ev):

   -24.1887 -23.7943 -23.7201 -23.4417 -12.2837 -12.1291 -11.4133 -11.1613
    -9.5737  -8.6412  -7.8514  -7.5171  -6.6291  -6.4318  -6.0557  -5.8569

          k = 0.2575-0.1328 0.0000 ( 18109 PWs)   bands (ev):

   -24.4029 -24.0106 -23.5033 -23.1595 -12.1923 -11.9993 -11.5610 -11.4750
    -9.7463  -8.6460  -7.7981  -7.3100  -6.4885  -6.3461  -6.0911  -5.8578

          k = 0.2421 0.1535 0.0000 ( 18132 PWs)   bands (ev):

   -24.4148 -24.0318 -23.4882 -23.1340 -12.0462 -11.8895 -11.8234 -11.5780
    -9.6754  -8.5768  -7.8967  -7.2975  -6.3341  -6.2562  -6.1541  -5.9843

          k = 0.2882-0.7053 0.0000 ( 18147 PWs)   bands (ev):

   -24.1955 -23.8508 -23.7099 -23.3811 -12.2210 -12.0774 -11.5571 -11.2948
    -9.3823  -8.4057  -8.1904  -7.6411  -6.5280  -6.3290  -6.0338  -5.8569

          k = 0.2728-0.4190 0.0000 ( 18128 PWs)   bands (ev):

   -24.1695 -23.8233 -23.7171 -23.4348 -12.2883 -12.1221 -11.4019 -11.2265
    -9.4676  -8.5463  -8.0027  -7.6775  -6.5666  -6.4264  -5.9896  -5.8001

          k =-0.5150 0.2656 0.0000 ( 18184 PWs)   bands (ev):

   -24.1505 -23.8206 -23.7509 -23.4227 -12.2815 -12.0835 -11.3849 -11.3340
    -9.3924  -8.4949  -8.1357  -7.7371  -6.5360  -6.4003  -5.9685  -5.7453

          k =-0.5303 0.5518 0.0000 ( 18128 PWs)   bands (ev):

   -24.1787 -23.8528 -23.7334 -23.3723 -12.2105 -12.0597 -11.5376 -11.3866
    -9.2606  -8.3800  -8.2637  -7.8052  -6.4740  -6.3173  -6.0032  -5.7952

          k =-0.4843-0.3070 0.0000 ( 18166 PWs)   bands (ev):

   -24.2021 -23.8900 -23.7066 -23.3312 -12.0740 -11.8906 -11.8559 -11.4812
    -9.1212  -8.6381  -7.9616  -7.9075  -6.3438  -6.1638  -6.1172  -5.9487

     highest occupied level (ev):    -5.7453

!    total energy              =    -176.31338518 Ry

     total all-electron energy =      -611.700930 Ry
     estimated scf accuracy    <          1.4E-11 Ry

     The total energy is the sum of the following terms:
     one-electron contribution =    -668.04219459 Ry
     hartree contribution      =     342.16342464 Ry
     xc contribution           =     -35.61474978 Ry
     ewald contribution        =     223.53094561 Ry
     one-center paw contrib.   =     -38.35081106 Ry

     convergence has been achieved in   9 iterations

     negative rho (up, down):  4.833E-04 0.000E+00

     Forces acting on atoms (cartesian axes, Ry/au):

     atom    1 type  1   force =     0.00798860    0.00189304   -0.00259413
     atom    2 type  1   force =     0.00503207    0.00077603    0.01178593
     atom    3 type  1   force =     0.00156339    0.00292686    0.00890019
     atom    4 type  1   force =    -0.00052584    0.00369312   -0.00417334
     atom    5 type  1   force =    -0.00795488    0.00343031    0.00677736
     atom    6 type  1   force =     0.00569996   -0.00499418   -0.00162626
     atom    7 type  1   force =    -0.00350825   -0.00610770   -0.00481933
     atom    8 type  1   force =     0.00358661    0.00032242   -0.00318976
     atom    9 type  2   force =    -0.01276104    0.00190182   -0.01331894
     atom   10 type  2   force =     0.00839839    0.00375269   -0.00401324
     atom   11 type  2   force =    -0.01230590   -0.01464480   -0.00185510
     atom   12 type  2   force =     0.00478688    0.00705039    0.00812661

     Total force =     0.039877     Total SCF correction =     0.000007
     Energy error            =      2.3E-03 Ry
     Gradient error          =      1.5E-02 Ry/Bohr

     number of scf cycles    =  16
     number of bfgs steps    =  14

     energy             old  =    -176.3110417465 Ry
     energy             new  =    -176.3133851822 Ry

     CASE: energy            _new < energy            _old

     new trust radius        =       0.0673100699 bohr
     new conv_thr            =            2.3E-11 Ry


ATOMIC_POSITIONS (angstrom)
H             4.3905884463        3.6114285676       11.2532035056
H             5.2657941443        4.2667511075       10.0761096355
H             3.3142024976        1.3067842446        8.0372890450
H             3.1917260967        2.8724335617        9.2684909751
H             4.0885331301        3.4963953638        8.1026868983
H             6.4352848234        4.1798722625        8.1387888762
H             2.9720412603        1.7199585045       11.3022931223
H             2.0324296034        3.0150351494       11.1957711176
O             5.2366867452        4.1227789836       11.0705076431
O             3.2310216306        3.0179363207        8.2812767960
O             5.5184875526        4.5399132148        8.2943559061
O             2.9585905203        2.6688194775       11.0189125570



     Writing config-only to output data dir ./output/f-BH.save/
     NEW-OLD atomic charge density approx. for the potential

     negative rho (up, down):  4.782E-04 0.000E+00

     total cpu time spent up to now is     1385.7 secs

     per-process dynamical memory:   210.2 Mb

     Self-consistent Calculation

     iteration #  1     ecut=    60.00 Ry     beta= 0.70
     Davidson diagonalization with overlap
     ethr =  1.00E-06,  avg # of iterations =  6.0

     negative rho (up, down):  4.796E-04 0.000E+00

     total cpu time spent up to now is     1396.5 secs

     total energy              =    -176.31549072 Ry
     estimated scf accuracy    <       0.00122806 Ry

     iteration #  2     ecut=    60.00 Ry     beta= 0.70
     Davidson diagonalization with overlap
     ethr =  3.84E-06,  avg # of iterations =  2.0

     negative rho (up, down):  4.818E-04 0.000E+00

     total cpu time spent up to now is     1401.9 secs

     total energy              =    -176.31569188 Ry
     estimated scf accuracy    <       0.00008799 Ry

     iteration #  3     ecut=    60.00 Ry     beta= 0.70
     Davidson diagonalization with overlap
     ethr =  2.75E-07,  avg # of iterations =  2.0

     negative rho (up, down):  4.825E-04 0.000E+00

     total cpu time spent up to now is     1407.2 secs

     total energy              =    -176.31570989 Ry
     estimated scf accuracy    <       0.00001214 Ry

     iteration #  4     ecut=    60.00 Ry     beta= 0.70
     Davidson diagonalization with overlap
     ethr =  3.79E-08,  avg # of iterations =  2.0

     negative rho (up, down):  4.827E-04 0.000E+00

     total cpu time spent up to now is     1412.7 secs

     total energy              =    -176.31571239 Ry
     estimated scf accuracy    <       0.00000120 Ry

     iteration #  5     ecut=    60.00 Ry     beta= 0.70
     Davidson diagonalization with overlap
     ethr =  3.75E-09,  avg # of iterations =  2.0

     negative rho (up, down):  4.828E-04 0.000E+00

     total cpu time spent up to now is     1418.0 secs

     total energy              =    -176.31571257 Ry
     estimated scf accuracy    <       0.00000006 Ry

     iteration #  6     ecut=    60.00 Ry     beta= 0.70
     Davidson diagonalization with overlap
     ethr =  1.79E-10,  avg # of iterations =  2.1

     negative rho (up, down):  4.828E-04 0.000E+00

     total cpu time spent up to now is     1423.6 secs

     total energy              =    -176.31571259 Ry
     estimated scf accuracy    <          8.0E-09 Ry

     iteration #  7     ecut=    60.00 Ry     beta= 0.70
     Davidson diagonalization with overlap
     ethr =  2.51E-11,  avg # of iterations =  2.0

     negative rho (up, down):  4.828E-04 0.000E+00

     total cpu time spent up to now is     1429.2 secs

     total energy              =    -176.31571259 Ry
     estimated scf accuracy    <          8.1E-10 Ry

     iteration #  8     ecut=    60.00 Ry     beta= 0.70
     Davidson diagonalization with overlap
     ethr =  2.54E-12,  avg # of iterations =  3.0

     negative rho (up, down):  4.828E-04 0.000E+00

     total cpu time spent up to now is     1435.1 secs

     total energy              =    -176.31571259 Ry
     estimated scf accuracy    <          1.5E-10 Ry

     iteration #  9     ecut=    60.00 Ry     beta= 0.70
     Davidson diagonalization with overlap
     ethr =  4.65E-13,  avg # of iterations =  2.9

     negative rho (up, down):  4.828E-04 0.000E+00

     total cpu time spent up to now is     1440.9 secs

     End of self-consistent calculation

          k = 0.0000 0.0000 0.0000 ( 18047 PWs)   bands (ev):

   -24.5952 -24.2208 -23.3554 -23.0491 -12.0258 -11.9956 -11.8611 -11.8071
   -10.0107  -8.8283  -7.5158  -6.9918  -6.4402  -6.3262  -6.2816  -6.1179

          k =-0.0153 0.2863 0.0000 ( 18132 PWs)   bands (ev):

   -24.4581 -24.0887 -23.5276 -23.2166 -12.2309 -12.1399 -11.6649 -11.4506
    -9.8370  -8.7905  -7.6662  -7.2602  -6.5529  -6.4492  -6.1950  -6.0225

          k = 0.0307-0.5725 0.0000 ( 18166 PWs)   bands (ev):

   -24.2335 -23.8883 -23.7630 -23.4756 -12.3062 -12.2516 -11.4788 -11.2456
    -9.5967  -8.7479  -7.8564  -7.6043  -6.6572  -6.4526  -6.1146  -5.9524

          k = 0.2575-0.1328 0.0000 ( 18109 PWs)   bands (ev):

   -24.4542 -24.0875 -23.5325 -23.2165 -12.2660 -12.0717 -11.6460 -11.5507
    -9.7797  -8.7445  -7.7673  -7.3585  -6.5172  -6.3943  -6.1524  -5.9909

          k = 0.2421 0.1535 0.0000 ( 18132 PWs)   bands (ev):

   -24.4630 -24.1066 -23.5206 -23.1944 -12.0487 -11.9878 -11.9058 -11.7051
    -9.6962  -8.6569  -7.8865  -7.3463  -6.3772  -6.3116  -6.2073  -6.1090

          k = 0.2882-0.7053 0.0000 ( 18147 PWs)   bands (ev):

   -24.2430 -23.9289 -23.7479 -23.4342 -12.2507 -12.1782 -11.6304 -11.3932
    -9.4006  -8.4941  -8.1927  -7.7189  -6.5545  -6.3754  -6.0856  -5.9652

          k = 0.2728-0.4190 0.0000 ( 18128 PWs)   bands (ev):

   -24.2251 -23.8904 -23.7680 -23.4764 -12.3488 -12.2137 -11.4682 -11.3049
    -9.5043  -8.6499  -7.9853  -7.7514  -6.5913  -6.4492  -6.0527  -5.9192

          k =-0.5150 0.2656 0.0000 ( 18184 PWs)   bands (ev):

   -24.2168 -23.8819 -23.7854 -23.4754 -12.3618 -12.1612 -11.4540 -11.4060
    -9.4475  -8.6128  -8.0764  -7.7899  -6.5610  -6.4260  -6.0411  -5.8828

          k =-0.5303 0.5518 0.0000 ( 18128 PWs)   bands (ev):

   -24.2355 -23.9246 -23.7600 -23.4335 -12.2789 -12.1267 -11.6122 -11.4803
    -9.3024  -8.4028  -8.3091  -7.8566  -6.4995  -6.3599  -6.0584  -5.9320

          k =-0.4843-0.3070 0.0000 ( 18166 PWs)   bands (ev):

   -24.2514 -23.9616 -23.7366 -23.3983 -12.0758 -11.9824 -11.9403 -11.6104
    -9.1530  -8.6062  -8.0900  -7.9283  -6.3829  -6.2286  -6.1439  -6.0856

     highest occupied level (ev):    -5.8828

!    total energy              =    -176.31571259 Ry

     total all-electron energy =      -611.703257 Ry
     estimated scf accuracy    <          6.4E-12 Ry

     The total energy is the sum of the following terms:
     one-electron contribution =    -666.32236300 Ry
     hartree contribution      =     341.23285312 Ry
     xc contribution           =     -35.61250771 Ry
     ewald contribution        =     222.73687447 Ry
     one-center paw contrib.   =     -38.35056946 Ry

     convergence has been achieved in   9 iterations

     negative rho (up, down):  4.828E-04 0.000E+00

     Forces acting on atoms (cartesian axes, Ry/au):

     atom    1 type  1   force =     0.00817208    0.00444432   -0.00835493
     atom    2 type  1   force =    -0.00158593   -0.00231873    0.00917428
     atom    3 type  1   force =     0.00611575   -0.00113819    0.00394685
     atom    4 type  1   force =     0.00139259    0.00320465    0.00127396
     atom    5 type  1   force =    -0.00325537    0.00435777    0.00479890
     atom    6 type  1   force =    -0.00044481    0.00169102   -0.00335886
     atom    7 type  1   force =     0.00153714   -0.00595909   -0.00477060
     atom    8 type  1   force =     0.00492469    0.00496207   -0.00085867
     atom    9 type  2   force =    -0.00635978    0.00027794   -0.00658469
     atom   10 type  2   force =     0.00259209   -0.00056864   -0.00327164
     atom   11 type  2   force =    -0.01003477   -0.01271560    0.00245837
     atom   12 type  2   force =    -0.00305367    0.00376249    0.00554701

     Total force =     0.030299     Total SCF correction =     0.000003
     Energy error            =      2.3E-03 Ry
     Gradient error          =      1.3E-02 Ry/Bohr

     number of scf cycles    =  17
     number of bfgs steps    =  15

     energy             old  =    -176.3133851822 Ry
     energy             new  =    -176.3157125889 Ry

     CASE: energy            _new < energy            _old

     new trust radius        =       0.0405681606 bohr
     new conv_thr            =            2.3E-11 Ry


ATOMIC_POSITIONS (angstrom)
H             4.3937832402        3.6125785280       11.2490485660
H             5.2723457596        4.2691948906       10.0767687243
H             3.3129970998        1.3017037159        8.0581120940
H             3.1890709241        2.8789096642        9.2616046068
H             4.0891587111        3.5110864019        8.1116189457
H             6.4344289554        4.1698566559        8.1385579773
H             2.9661844483        1.7120833038       11.2926336615
H             2.0361909898        3.0148394529       11.1913422086
O             5.2298308701        4.1335881243       11.0665274672
O             3.2343941028        3.0193239604        8.2757440619
O             5.5107464596        4.5236097245        8.2842579015
O             2.9662548899        2.6713323358       11.0334698631



     Writing config-only to output data dir ./output/f-BH.save/
     NEW-OLD atomic charge density approx. for the potential

     negative rho (up, down):  4.847E-04 0.000E+00

     total cpu time spent up to now is     1453.7 secs

     per-process dynamical memory:   210.7 Mb

     Self-consistent Calculation

     iteration #  1     ecut=    60.00 Ry     beta= 0.70
     Davidson diagonalization with overlap
     ethr =  1.00E-06,  avg # of iterations =  5.0

     negative rho (up, down):  4.831E-04 0.000E+00

     total cpu time spent up to now is     1463.6 secs

     total energy              =    -176.31664247 Ry
     estimated scf accuracy    <       0.00053388 Ry

     iteration #  2     ecut=    60.00 Ry     beta= 0.70
     Davidson diagonalization with overlap
     ethr =  1.67E-06,  avg # of iterations =  2.0

     negative rho (up, down):  4.838E-04 0.000E+00

     total cpu time spent up to now is     1469.0 secs

     total energy              =    -176.31673179 Ry
     estimated scf accuracy    <       0.00005258 Ry

     iteration #  3     ecut=    60.00 Ry     beta= 0.70
     Davidson diagonalization with overlap
     ethr =  1.64E-07,  avg # of iterations =  2.0

     negative rho (up, down):  4.841E-04 0.000E+00

     total cpu time spent up to now is     1474.7 secs

     total energy              =    -176.31674346 Ry
     estimated scf accuracy    <       0.00000731 Ry

     iteration #  4     ecut=    60.00 Ry     beta= 0.70
     Davidson diagonalization with overlap
     ethr =  2.29E-08,  avg # of iterations =  2.0

     negative rho (up, down):  4.841E-04 0.000E+00

     total cpu time spent up to now is     1480.0 secs

     total energy              =    -176.31674468 Ry
     estimated scf accuracy    <       0.00000038 Ry

     iteration #  5     ecut=    60.00 Ry     beta= 0.70
     Davidson diagonalization with overlap
     ethr =  1.18E-09,  avg # of iterations =  2.4

     negative rho (up, down):  4.842E-04 0.000E+00

     total cpu time spent up to now is     1485.6 secs

     total energy              =    -176.31674474 Ry
     estimated scf accuracy    <       0.00000004 Ry

     iteration #  6     ecut=    60.00 Ry     beta= 0.70
     Davidson diagonalization with overlap
     ethr =  1.35E-10,  avg # of iterations =  2.4

     negative rho (up, down):  4.842E-04 0.000E+00

     total cpu time spent up to now is     1491.2 secs

     total energy              =    -176.31674475 Ry
     estimated scf accuracy    <          2.9E-09 Ry

     iteration #  7     ecut=    60.00 Ry     beta= 0.70
     Davidson diagonalization with overlap
     ethr =  8.99E-12,  avg # of iterations =  2.5

     negative rho (up, down):  4.842E-04 0.000E+00

     total cpu time spent up to now is     1497.2 secs

     total energy              =    -176.31674475 Ry
     estimated scf accuracy    <          5.0E-10 Ry

     iteration #  8     ecut=    60.00 Ry     beta= 0.70
     Davidson diagonalization with overlap
     ethr =  1.57E-12,  avg # of iterations =  2.4

     negative rho (up, down):  4.842E-04 0.000E+00

     total cpu time spent up to now is     1502.8 secs

     total energy              =    -176.31674475 Ry
     estimated scf accuracy    <          2.7E-11 Ry

     iteration #  9     ecut=    60.00 Ry     beta= 0.70
     Davidson diagonalization with overlap
     ethr =  1.00E-13,  avg # of iterations =  2.8

     negative rho (up, down):  4.842E-04 0.000E+00

     total cpu time spent up to now is     1508.7 secs

     End of self-consistent calculation

          k = 0.0000 0.0000 0.0000 ( 18047 PWs)   bands (ev):

   -24.6448 -24.2777 -23.3984 -23.0957 -12.0744 -12.0213 -11.9512 -11.8206
   -10.0505  -8.9117  -7.5198  -7.0392  -6.4972  -6.3586  -6.3448  -6.1786

          k =-0.0153 0.2863 0.0000 ( 18132 PWs)   bands (ev):

   -24.5074 -24.1473 -23.5703 -23.2626 -12.2745 -12.1971 -11.6905 -11.4985
    -9.8722  -8.8734  -7.6877  -7.3304  -6.5819  -6.4869  -6.2467  -6.0843

          k = 0.0307-0.5725 0.0000 ( 18166 PWs)   bands (ev):

   -24.2816 -23.9609 -23.7968 -23.5181 -12.3506 -12.3083 -11.4988 -11.2949
    -9.6214  -8.8317  -7.8961  -7.6902  -6.6748  -6.4761  -6.1671  -6.0166

          k = 0.2575-0.1328 0.0000 ( 18109 PWs)   bands (ev):

   -24.5051 -24.1468 -23.5723 -23.2622 -12.3103 -12.1321 -11.6816 -11.5872
    -9.8261  -8.8340  -7.7663  -7.4034  -6.5514  -6.4309  -6.2060  -6.0760

          k = 0.2421 0.1535 0.0000 ( 18132 PWs)   bands (ev):

   -24.5102 -24.1627 -23.5643 -23.2456 -12.0717 -12.0355 -11.9496 -11.7620
    -9.7348  -8.7377  -7.8980  -7.4025  -6.4136  -6.3621  -6.2624  -6.1731

          k = 0.2882-0.7053 0.0000 ( 18147 PWs)   bands (ev):

   -24.2862 -23.9969 -23.7825 -23.4869 -12.2889 -12.2295 -11.6555 -11.4465
    -9.4286  -8.5725  -8.2244  -7.7975  -6.5755  -6.4089  -6.1418  -6.0325

          k = 0.2728-0.4190 0.0000 ( 18128 PWs)   bands (ev):

   -24.2772 -23.9627 -23.7984 -23.5179 -12.3951 -12.2718 -11.4910 -11.3503
    -9.5449  -8.7377  -8.0058  -7.8138  -6.6101  -6.4749  -6.1087  -5.9991

          k =-0.5150 0.2656 0.0000 ( 18184 PWs)   bands (ev):

   -24.2725 -23.9615 -23.8039 -23.5173 -12.4072 -12.2225 -11.4851 -11.4437
    -9.5092  -8.7114  -8.0717  -7.8189  -6.5871  -6.4509  -6.1024  -5.9768

          k =-0.5303 0.5518 0.0000 ( 18128 PWs)   bands (ev):

   -24.2817 -23.9969 -23.7864 -23.4865 -12.3184 -12.1792 -11.6426 -11.5281
    -9.3546  -8.4951  -8.3144  -7.9001  -6.5252  -6.3920  -6.1152  -6.0186

          k =-0.4843-0.3070 0.0000 ( 18166 PWs)   bands (ev):

   -24.2889 -24.0293 -23.7698 -23.4598 -12.0900 -12.0352 -11.9740 -11.6746
    -9.1958  -8.6225  -8.1630  -7.9934  -6.4112  -6.2783  -6.1969  -6.1554

     highest occupied level (ev):    -5.9768

!    total energy              =    -176.31674475 Ry

     total all-electron energy =      -611.704290 Ry
     estimated scf accuracy    <          6.0E-12 Ry

     The total energy is the sum of the following terms:
     one-electron contribution =    -665.41442372 Ry
     hartree contribution      =     340.72322516 Ry
     xc contribution           =     -35.61291575 Ry
     ewald contribution        =     222.33795816 Ry
     one-center paw contrib.   =     -38.35058860 Ry

     convergence has been achieved in   9 iterations

     negative rho (up, down):  4.842E-04 0.000E+00

     Forces acting on atoms (cartesian axes, Ry/au):

     atom    1 type  1   force =     0.00323488    0.00249686   -0.00779665
     atom    2 type  1   force =    -0.00345764   -0.00254104    0.00205759
     atom    3 type  1   force =     0.00649411   -0.00565995    0.00200024
     atom    4 type  1   force =     0.00112000    0.00277910    0.00359460
     atom    5 type  1   force =    -0.00271922    0.00303309    0.00233884
     atom    6 type  1   force =    -0.00363206    0.00250123   -0.00389136
     atom    7 type  1   force =     0.00210537   -0.00208291   -0.00432988
     atom    8 type  1   force =     0.00634771    0.00521163    0.00095062
     atom    9 type  2   force =     0.00072703    0.00140443   -0.00052053
     atom   10 type  2   force =     0.00207068   -0.00098470   -0.00128198
     atom   11 type  2   force =    -0.00624137   -0.00619562    0.00334016
     atom   12 type  2   force =    -0.00604948    0.00003788    0.00353835

     Total force =     0.022362     Total SCF correction =     0.000002
     Energy error            =      1.0E-03 Ry
     Gradient error          =      7.8E-03 Ry/Bohr

     number of scf cycles    =  18
     number of bfgs steps    =  16

     energy             old  =    -176.3157125889 Ry
     energy             new  =    -176.3167447531 Ry

     CASE: energy            _new < energy            _old

     new trust radius        =       0.0375291600 bohr
     new conv_thr            =            1.0E-11 Ry


ATOMIC_POSITIONS (angstrom)
H             4.3986534589        3.6165198379       11.2401491084
H             5.2740786697        4.2688464875       10.0779954961
H             3.3161025802        1.2924898118        8.0754286389
H             3.1878897047        2.8860597317        9.2576148193
H             4.0883848864        3.5249505255        8.1205418916
H             6.4302941087        4.1633037597        8.1358028588
H             2.9650319496        1.7032360962       11.2818067561
H             2.0396091243        3.0190752987       11.1899723901
O             5.2270150526        4.1449899492       11.0640653950
O             3.2387029321        3.0197140790        8.2714056101
O             5.5010702541        4.5082180778        8.2787923878
O             2.9685537296        2.6707031033       11.0461107257



     Writing config-only to output data dir ./output/f-BH.save/
     NEW-OLD atomic charge density approx. for the potential

     negative rho (up, down):  4.874E-04 0.000E+00

     total cpu time spent up to now is     1521.3 secs

     per-process dynamical memory:   210.2 Mb

     Self-consistent Calculation

     iteration #  1     ecut=    60.00 Ry     beta= 0.70
     Davidson diagonalization with overlap
     ethr =  1.00E-06,  avg # of iterations =  5.0

     negative rho (up, down):  4.855E-04 0.000E+00

     total cpu time spent up to now is     1530.9 secs

     total energy              =    -176.31741220 Ry
     estimated scf accuracy    <       0.00040062 Ry

     iteration #  2     ecut=    60.00 Ry     beta= 0.70
     Davidson diagonalization with overlap
     ethr =  1.25E-06,  avg # of iterations =  2.0

     negative rho (up, down):  4.857E-04 0.000E+00

     total cpu time spent up to now is     1536.2 secs

     total energy              =    -176.31747593 Ry
     estimated scf accuracy    <       0.00004953 Ry

     iteration #  3     ecut=    60.00 Ry     beta= 0.70
     Davidson diagonalization with overlap
     ethr =  1.55E-07,  avg # of iterations =  2.4

     negative rho (up, down):  4.859E-04 0.000E+00

     total cpu time spent up to now is     1541.8 secs

     total energy              =    -176.31748723 Ry
     estimated scf accuracy    <       0.00000746 Ry

     iteration #  4     ecut=    60.00 Ry     beta= 0.70
     Davidson diagonalization with overlap
     ethr =  2.33E-08,  avg # of iterations =  2.4

     negative rho (up, down):  4.860E-04 0.000E+00

     total cpu time spent up to now is     1547.2 secs

     total energy              =    -176.31748851 Ry
     estimated scf accuracy    <       0.00000034 Ry

     iteration #  5     ecut=    60.00 Ry     beta= 0.70
     Davidson diagonalization with overlap
     ethr =  1.06E-09,  avg # of iterations =  2.4

     negative rho (up, down):  4.860E-04 0.000E+00

     total cpu time spent up to now is     1553.0 secs

     total energy              =    -176.31748858 Ry
     estimated scf accuracy    <       0.00000006 Ry

     iteration #  6     ecut=    60.00 Ry     beta= 0.70
     Davidson diagonalization with overlap
     ethr =  1.91E-10,  avg # of iterations =  2.2

     negative rho (up, down):  4.860E-04 0.000E+00

     total cpu time spent up to now is     1558.6 secs

     total energy              =    -176.31748859 Ry
     estimated scf accuracy    <          5.4E-09 Ry

     iteration #  7     ecut=    60.00 Ry     beta= 0.70
     Davidson diagonalization with overlap
     ethr =  1.69E-11,  avg # of iterations =  3.0

     negative rho (up, down):  4.860E-04 0.000E+00

     total cpu time spent up to now is     1564.2 secs

     total energy              =    -176.31748859 Ry
     estimated scf accuracy    <          5.6E-10 Ry

     iteration #  8     ecut=    60.00 Ry     beta= 0.70
     Davidson diagonalization with overlap
     ethr =  1.76E-12,  avg # of iterations =  2.8

     negative rho (up, down):  4.860E-04 0.000E+00

     total cpu time spent up to now is     1570.3 secs

     total energy              =    -176.31748859 Ry
     estimated scf accuracy    <          8.4E-11 Ry

     iteration #  9     ecut=    60.00 Ry     beta= 0.70
     Davidson diagonalization with overlap
     ethr =  2.63E-13,  avg # of iterations =  2.4

     negative rho (up, down):  4.860E-04 0.000E+00

     total cpu time spent up to now is     1575.9 secs

     total energy              =    -176.31748859 Ry
     estimated scf accuracy    <          1.4E-11 Ry

     iteration # 10     ecut=    60.00 Ry     beta= 0.70
     Davidson diagonalization with overlap
     ethr =  1.00E-13,  avg # of iterations =  2.1

     negative rho (up, down):  4.860E-04 0.000E+00

     total cpu time spent up to now is     1581.3 secs

     End of self-consistent calculation

          k = 0.0000 0.0000 0.0000 ( 18047 PWs)   bands (ev):

   -24.6945 -24.3317 -23.4415 -23.1461 -12.1206 -12.0407 -11.9950 -11.8443
   -10.0924  -8.9844  -7.5389  -7.0919  -6.5467  -6.3993  -6.3790  -6.2274

          k =-0.0153 0.2863 0.0000 ( 18132 PWs)   bands (ev):

   -24.5568 -24.2028 -23.6127 -23.3126 -12.3116 -12.2346 -11.7141 -11.5317
    -9.9085  -8.9422  -7.7255  -7.3994  -6.6071  -6.5201  -6.2861  -6.1346

          k = 0.0307-0.5725 0.0000 ( 18166 PWs)   bands (ev):

   -24.3302 -24.0283 -23.8285 -23.5681 -12.3894 -12.3444 -11.5204 -11.3284
    -9.6458  -8.8957  -7.9509  -7.7755  -6.6872  -6.5027  -6.2081  -6.0689

          k = 0.2575-0.1328 0.0000 ( 18109 PWs)   bands (ev):

   -24.5561 -24.2035 -23.6117 -23.3120 -12.3450 -12.1788 -11.7099 -11.6112
    -9.8720  -8.9105  -7.7808  -7.4478  -6.5835  -6.4686  -6.2459  -6.1447

          k = 0.2421 0.1535 0.0000 ( 18132 PWs)   bands (ev):

   -24.5580 -24.2167 -23.6065 -23.3002 -12.1039 -12.0644 -11.9832 -11.7937
    -9.7762  -8.8102  -7.9217  -7.4613  -6.4472  -6.3972  -6.3122  -6.2236

          k = 0.2882-0.7053 0.0000 ( 18147 PWs)   bands (ev):

   -24.3306 -24.0633 -23.8116 -23.5457 -12.3211 -12.2665 -11.6784 -11.4792
    -9.4580  -8.6355  -8.2713  -7.8755  -6.5913  -6.4391  -6.1900  -6.0869

          k = 0.2728-0.4190 0.0000 ( 18128 PWs)   bands (ev):

   -24.3291 -24.0321 -23.8247 -23.5673 -12.4309 -12.3157 -11.5143 -11.3794
    -9.5829  -8.8086  -8.0393  -7.8768  -6.6234  -6.5069  -6.1526  -6.0650

          k =-0.5150 0.2656 0.0000 ( 18184 PWs)   bands (ev):

   -24.3273 -24.0352 -23.8222 -23.5667 -12.4422 -12.2711 -11.5198 -11.4599
    -9.5645  -8.7942  -8.0811  -7.8513  -6.6099  -6.4823  -6.1489  -6.0559

          k =-0.5303 0.5518 0.0000 ( 18128 PWs)   bands (ev):

   -24.3289 -24.0668 -23.8085 -23.5453 -12.3492 -12.2231 -11.6694 -11.5537
    -9.4040  -8.5770  -8.3327  -7.9450  -6.5466  -6.4241  -6.1628  -6.0887

          k =-0.4843-0.3070 0.0000 ( 18166 PWs)   bands (ev):

   -24.3285 -24.0973 -23.7955 -23.5266 -12.1091 -12.0750 -12.0026 -11.7074
    -9.2374  -8.6616  -8.2054  -8.0755  -6.4290  -6.3208  -6.2482  -6.2097

     highest occupied level (ev):    -6.0559

!    total energy              =    -176.31748859 Ry

     total all-electron energy =      -611.705033 Ry
     estimated scf accuracy    <          2.3E-12 Ry

     The total energy is the sum of the following terms:
     one-electron contribution =    -664.83711240 Ry
     hartree contribution      =     340.38700841 Ry
     xc contribution           =     -35.61770121 Ry
     ewald contribution        =     222.10102353 Ry
     one-center paw contrib.   =     -38.35070693 Ry

     convergence has been achieved in  10 iterations

     negative rho (up, down):  4.860E-04 0.000E+00

     Forces acting on atoms (cartesian axes, Ry/au):

     atom    1 type  1   force =    -0.00176291   -0.00018476   -0.00449678
     atom    2 type  1   force =    -0.00261583   -0.00145690   -0.00511257
     atom    3 type  1   force =     0.00451351   -0.00643635    0.00028672
     atom    4 type  1   force =     0.00036245    0.00214953    0.00367448
     atom    5 type  1   force =    -0.00106260    0.00226635   -0.00033737
     atom    6 type  1   force =    -0.00597690    0.00086172   -0.00352882
     atom    7 type  1   force =     0.00050896    0.00086550   -0.00303267
     atom    8 type  1   force =     0.00610515    0.00351348    0.00283761
     atom    9 type  2   force =     0.00461453    0.00176147    0.00343746
     atom   10 type  2   force =     0.00024232   -0.00170312    0.00238386
     atom   11 type  2   force =    -0.00070096   -0.00129719    0.00350283
     atom   12 type  2   force =    -0.00422773   -0.00033975    0.00038525

     Total force =     0.018418     Total SCF correction =     0.000002
     Energy error            =      7.4E-04 Ry
     Gradient error          =      6.4E-03 Ry/Bohr

     number of scf cycles    =  19
     number of bfgs steps    =  17

     energy             old  =    -176.3167447531 Ry
     energy             new  =    -176.3174885926 Ry

     CASE: energy            _new < energy            _old

     new trust radius        =       0.0272916887 bohr
     new conv_thr            =            7.4E-12 Ry


ATOMIC_POSITIONS (angstrom)
H             4.4040631546        3.6195954207       11.2329835568
H             5.2731159066        4.2677132998       10.0764806692
H             3.3223397991        1.2834960540        8.0848512087
H             3.1871464479        2.8939979216        9.2585671987
H             4.0853243619        3.5326312904        8.1224554199
H             6.4254371079        4.1590813478        8.1303477353
H             2.9625745994        1.6970025133       11.2761690260
H             2.0431355186        3.0252678474       11.1918124155
O             5.2292771519        4.1527864658       11.0625830603
O             3.2399365803        3.0196168553        8.2711677678
O             5.4957798633        4.4980236821        8.2793387268
O             2.9672559592        2.6688940597       11.0529292931



     Writing config-only to output data dir ./output/f-BH.save/
     NEW-OLD atomic charge density approx. for the potential

     negative rho (up, down):  4.882E-04 0.000E+00

     total cpu time spent up to now is     1594.0 secs

     per-process dynamical memory:   210.7 Mb

     Self-consistent Calculation

     iteration #  1     ecut=    60.00 Ry     beta= 0.70
     Davidson diagonalization with overlap
     ethr =  1.00E-06,  avg # of iterations =  4.0

     negative rho (up, down):  4.873E-04 0.000E+00

     total cpu time spent up to now is     1602.6 secs

     total energy              =    -176.31788415 Ry
     estimated scf accuracy    <       0.00014161 Ry

     iteration #  2     ecut=    60.00 Ry     beta= 0.70
     Davidson diagonalization with overlap
     ethr =  4.43E-07,  avg # of iterations =  2.0

     negative rho (up, down):  4.873E-04 0.000E+00

     total cpu time spent up to now is     1608.1 secs

     total energy              =    -176.31790509 Ry
     estimated scf accuracy    <       0.00002968 Ry

     iteration #  3     ecut=    60.00 Ry     beta= 0.70
     Davidson diagonalization with overlap
     ethr =  9.27E-08,  avg # of iterations =  2.0

     negative rho (up, down):  4.873E-04 0.000E+00

     total cpu time spent up to now is     1613.6 secs

     total energy              =    -176.31791245 Ry
     estimated scf accuracy    <       0.00000320 Ry

     iteration #  4     ecut=    60.00 Ry     beta= 0.70
     Davidson diagonalization with overlap
     ethr =  9.98E-09,  avg # of iterations =  2.0

     negative rho (up, down):  4.873E-04 0.000E+00

     total cpu time spent up to now is     1618.6 secs

     total energy              =    -176.31791268 Ry
     estimated scf accuracy    <       0.00000024 Ry

     iteration #  5     ecut=    60.00 Ry     beta= 0.70
     Davidson diagonalization with overlap
     ethr =  7.55E-10,  avg # of iterations =  3.0

     negative rho (up, down):  4.873E-04 0.000E+00

     total cpu time spent up to now is     1624.8 secs

     total energy              =    -176.31791276 Ry
     estimated scf accuracy    <       0.00000010 Ry

     iteration #  6     ecut=    60.00 Ry     beta= 0.70
     Davidson diagonalization with overlap
     ethr =  3.14E-10,  avg # of iterations =  2.0

     negative rho (up, down):  4.873E-04 0.000E+00

     total cpu time spent up to now is     1630.2 secs

     total energy              =    -176.31791278 Ry
     estimated scf accuracy    <          6.8E-09 Ry

     iteration #  7     ecut=    60.00 Ry     beta= 0.70
     Davidson diagonalization with overlap
     ethr =  2.11E-11,  avg # of iterations =  3.8

     negative rho (up, down):  4.873E-04 0.000E+00

     total cpu time spent up to now is     1636.8 secs

     total energy              =    -176.31791278 Ry
     estimated scf accuracy    <          4.4E-09 Ry

     iteration #  8     ecut=    60.00 Ry     beta= 0.70
     Davidson diagonalization with overlap
     ethr =  1.39E-11,  avg # of iterations =  2.4

     negative rho (up, down):  4.873E-04 0.000E+00

     total cpu time spent up to now is     1642.3 secs

     total energy              =    -176.31791278 Ry
     estimated scf accuracy    <          5.3E-11 Ry

     iteration #  9     ecut=    60.00 Ry     beta= 0.70
     Davidson diagonalization with overlap
     ethr =  1.65E-13,  avg # of iterations =  5.8

     negative rho (up, down):  4.873E-04 0.000E+00

     total cpu time spent up to now is     1650.9 secs

     total energy              =    -176.31791278 Ry
     estimated scf accuracy    <          2.4E-10 Ry

     iteration # 10     ecut=    60.00 Ry     beta= 0.70
     Davidson diagonalization with overlap
     ethr =  1.65E-13,  avg # of iterations =  3.0

     negative rho (up, down):  4.873E-04 0.000E+00

     total cpu time spent up to now is     1657.2 secs

     total energy              =    -176.31791278 Ry
     estimated scf accuracy    <          8.2E-12 Ry

     iteration # 11     ecut=    60.00 Ry     beta= 0.70
     Davidson diagonalization with overlap
     ethr =  1.00E-13,  avg # of iterations =  2.0

     negative rho (up, down):  4.873E-04 0.000E+00

     total cpu time spent up to now is     1662.3 secs

     End of self-consistent calculation

          k = 0.0000 0.0000 0.0000 ( 18047 PWs)   bands (ev):

   -24.7152 -24.3536 -23.4595 -23.1711 -12.1159 -12.0456 -12.0033 -11.8556
   -10.1167  -9.0158  -7.5554  -7.1178  -6.5603  -6.4164  -6.3866  -6.2450

          k =-0.0153 0.2863 0.0000 ( 18132 PWs)   bands (ev):

   -24.5777 -24.2251 -23.6306 -23.3371 -12.3129 -12.2384 -11.7212 -11.5416
    -9.9291  -8.9695  -7.7502  -7.4303  -6.6145  -6.5324  -6.2959  -6.1520

          k = 0.0307-0.5725 0.0000 ( 18166 PWs)   bands (ev):

   -24.3519 -24.0514 -23.8450 -23.5922 -12.3895 -12.3502 -11.5279 -11.3398
    -9.6604  -8.9158  -7.9857  -7.8115  -6.6895  -6.5145  -6.2182  -6.0860

          k = 0.2575-0.1328 0.0000 ( 18109 PWs)   bands (ev):

   -24.5772 -24.2256 -23.6287 -23.3371 -12.3456 -12.1868 -11.7154 -11.6184
    -9.8968  -8.9424  -7.7921  -7.4653  -6.5936  -6.4890  -6.2575  -6.1701

          k = 0.2421 0.1535 0.0000 ( 18132 PWs)   bands (ev):

   -24.5788 -24.2382 -23.6241 -23.3262 -12.1028 -12.0753 -11.9854 -11.7999
    -9.8004  -8.8424  -7.9382  -7.4884  -6.4552  -6.4080  -6.3300  -6.2422

          k = 0.2882-0.7053 0.0000 ( 18147 PWs)   bands (ev):

   -24.3520 -24.0854 -23.8270 -23.5727 -12.3224 -12.2729 -11.6834 -11.4868
    -9.4763  -8.6593  -8.2982  -7.9109  -6.5939  -6.4513  -6.2038  -6.1060

          k = 0.2728-0.4190 0.0000 ( 18128 PWs)   bands (ev):

   -24.3514 -24.0551 -23.8392 -23.5928 -12.4317 -12.3231 -11.5209 -11.3884
    -9.6033  -8.8345  -8.0599  -7.9023  -6.6253  -6.5253  -6.1650  -6.0895

          k =-0.5150 0.2656 0.0000 ( 18184 PWs)   bands (ev):

   -24.3502 -24.0586 -23.8341 -23.5940 -12.4431 -12.2802 -11.5277 -11.4647
    -9.5922  -8.8274  -8.0870  -7.8641  -6.6174  -6.5020  -6.1628  -6.0875

          k =-0.5303 0.5518 0.0000 ( 18128 PWs)   bands (ev):

   -24.3508 -24.0890 -23.8215 -23.5739 -12.3505 -12.2325 -11.6735 -11.5583
    -9.4312  -8.6125  -8.3434  -7.9628  -6.5522  -6.4404  -6.1772  -6.1155

          k =-0.4843-0.3070 0.0000 ( 18166 PWs)   bands (ev):

   -24.3494 -24.1186 -23.8095 -23.5564 -12.1238 -12.0706 -12.0075 -11.7088
    -9.2631  -8.6861  -8.2210  -8.1115  -6.4295  -6.3379  -6.2634  -6.2317

     highest occupied level (ev):    -6.0860

!    total energy              =    -176.31791278 Ry

     total all-electron energy =      -611.705458 Ry
     estimated scf accuracy    <          2.8E-13 Ry

     The total energy is the sum of the following terms:
     one-electron contribution =    -664.78847798 Ry
     hartree contribution      =     340.34640014 Ry
     xc contribution           =     -35.62183710 Ry
     ewald contribution        =     222.09683309 Ry
     one-center paw contrib.   =     -38.35083094 Ry

     convergence has been achieved in  11 iterations

     negative rho (up, down):  4.873E-04 0.000E+00

     Forces acting on atoms (cartesian axes, Ry/au):

     atom    1 type  1   force =    -0.00333735   -0.00117200   -0.00157185
     atom    2 type  1   force =    -0.00072674   -0.00044387   -0.00711909
     atom    3 type  1   force =     0.00186890   -0.00481589   -0.00026582
     atom    4 type  1   force =    -0.00006526    0.00144766    0.00309061
     atom    5 type  1   force =    -0.00039830    0.00152062   -0.00111512
     atom    6 type  1   force =    -0.00512116   -0.00208639   -0.00270434
     atom    7 type  1   force =    -0.00082175    0.00295584   -0.00244288
     atom    8 type  1   force =     0.00370103    0.00242553    0.00393199
     atom    9 type  2   force =     0.00358249    0.00086495    0.00306513
     atom   10 type  2   force =    -0.00041638   -0.00195110    0.00385753
     atom   11 type  2   force =     0.00138892    0.00172699    0.00285474
     atom   12 type  2   force =     0.00034560   -0.00047235   -0.00158091

     Total force =     0.015955     Total SCF correction =     0.000001
     Energy error            =      4.2E-04 Ry
     Gradient error          =      7.1E-03 Ry/Bohr

     number of scf cycles    =  20
     number of bfgs steps    =  18

     energy             old  =    -176.3174885926 Ry
     energy             new  =    -176.3179127794 Ry

     CASE: energy            _new < energy            _old

     new trust radius        =       0.0251390976 bohr
     new conv_thr            =            4.2E-12 Ry


ATOMIC_POSITIONS (angstrom)
H             4.4088296798        3.6213441899       11.2270342900
H             5.2719715161        4.2666390672       10.0721933782
H             3.3299315765        1.2744978564        8.0910454127
H             3.1863480500        2.9028130120        9.2628915439
H             4.0805705959        3.5377074319        8.1205769078
H             6.4197664374        4.1538057057        8.1228619256
H             2.9579715678        1.6936788189       11.2721256936
H             2.0482616043        3.0328415683       11.1962575500
O             5.2331700623        4.1581721190       11.0606246397
O             3.2397430982        3.0188743505        8.2741329571
O             5.4925689135        4.4902285116        8.2832018948
O             2.9662533488        2.6675041268       11.0567398844



     Writing config-only to output data dir ./output/f-BH.save/
     NEW-OLD atomic charge density approx. for the potential

     negative rho (up, down):  4.888E-04 0.000E+00

     total cpu time spent up to now is     1675.1 secs

     per-process dynamical memory:   210.2 Mb

     Self-consistent Calculation

     iteration #  1     ecut=    60.00 Ry     beta= 0.70
     Davidson diagonalization with overlap
     ethr =  1.00E-06,  avg # of iterations =  4.0

     negative rho (up, down):  4.888E-04 0.000E+00

     total cpu time spent up to now is     1683.4 secs

     total energy              =    -176.31822635 Ry
     estimated scf accuracy    <       0.00010853 Ry

     iteration #  2     ecut=    60.00 Ry     beta= 0.70
     Davidson diagonalization with overlap
     ethr =  3.39E-07,  avg # of iterations =  2.0

     negative rho (up, down):  4.888E-04 0.000E+00

     total cpu time spent up to now is     1688.9 secs

     total energy              =    -176.31824283 Ry
     estimated scf accuracy    <       0.00002314 Ry

     iteration #  3     ecut=    60.00 Ry     beta= 0.70
     Davidson diagonalization with overlap
     ethr =  7.23E-08,  avg # of iterations =  2.0

     negative rho (up, down):  4.888E-04 0.000E+00

     total cpu time spent up to now is     1694.5 secs

     total energy              =    -176.31824851 Ry
     estimated scf accuracy    <       0.00000258 Ry

     iteration #  4     ecut=    60.00 Ry     beta= 0.70
     Davidson diagonalization with overlap
     ethr =  8.07E-09,  avg # of iterations =  2.0

     negative rho (up, down):  4.887E-04 0.000E+00

     total cpu time spent up to now is     1699.4 secs

     total energy              =    -176.31824867 Ry
     estimated scf accuracy    <       0.00000019 Ry

     iteration #  5     ecut=    60.00 Ry     beta= 0.70
     Davidson diagonalization with overlap
     ethr =  5.88E-10,  avg # of iterations =  3.1

     negative rho (up, down):  4.887E-04 0.000E+00

     total cpu time spent up to now is     1705.7 secs

     total energy              =    -176.31824874 Ry
     estimated scf accuracy    <       0.00000010 Ry

     iteration #  6     ecut=    60.00 Ry     beta= 0.70
     Davidson diagonalization with overlap
     ethr =  3.06E-10,  avg # of iterations =  2.2

     negative rho (up, down):  4.887E-04 0.000E+00

     total cpu time spent up to now is     1711.1 secs

     total energy              =    -176.31824876 Ry
     estimated scf accuracy    <          1.9E-09 Ry

     iteration #  7     ecut=    60.00 Ry     beta= 0.70
     Davidson diagonalization with overlap
     ethr =  6.06E-12,  avg # of iterations =  5.9

     negative rho (up, down):  4.888E-04 0.000E+00

     total cpu time spent up to now is     1719.4 secs

     total energy              =    -176.31824876 Ry
     estimated scf accuracy    <          7.8E-09 Ry

     iteration #  8     ecut=    60.00 Ry     beta= 0.70
     Davidson diagonalization with overlap
     ethr =  6.06E-12,  avg # of iterations =  3.0

     negative rho (up, down):  4.888E-04 0.000E+00

     total cpu time spent up to now is     1725.9 secs

     total energy              =    -176.31824876 Ry
     estimated scf accuracy    <          6.9E-11 Ry

     iteration #  9     ecut=    60.00 Ry     beta= 0.70
     Davidson diagonalization with overlap
     ethr =  2.14E-13,  avg # of iterations =  4.0

     negative rho (up, down):  4.888E-04 0.000E+00

     total cpu time spent up to now is     1733.6 secs

     total energy              =    -176.31824876 Ry
     estimated scf accuracy    <          8.3E-11 Ry

     iteration # 10     ecut=    60.00 Ry     beta= 0.70
     Davidson diagonalization with overlap
     ethr =  2.14E-13,  avg # of iterations =  1.1

     negative rho (up, down):  4.888E-04 0.000E+00

     total cpu time spent up to now is     1737.8 secs

     total energy              =    -176.31824876 Ry
     estimated scf accuracy    <          3.7E-11 Ry

     iteration # 11     ecut=    60.00 Ry     beta= 0.70
     Davidson diagonalization with overlap
     ethr =  1.15E-13,  avg # of iterations =  2.0

     negative rho (up, down):  4.888E-04 0.000E+00

     total cpu time spent up to now is     1742.8 secs

     total energy              =    -176.31824876 Ry
     estimated scf accuracy    <          5.2E-12 Ry

     iteration # 12     ecut=    60.00 Ry     beta= 0.70
     Davidson diagonalization with overlap
     ethr =  1.00E-13,  avg # of iterations =  1.0

     negative rho (up, down):  4.888E-04 0.000E+00

     total cpu time spent up to now is     1746.9 secs

     End of self-consistent calculation

          k = 0.0000 0.0000 0.0000 ( 18047 PWs)   bands (ev):

   -24.7174 -24.3538 -23.4674 -23.1780 -12.0939 -12.0337 -11.9950 -11.8576
   -10.1321  -9.0223  -7.5670  -7.1238  -6.5498  -6.4148  -6.3929  -6.2435

          k =-0.0153 0.2863 0.0000 ( 18132 PWs)   bands (ev):

   -24.5799 -24.2244 -23.6395 -23.3435 -12.2938 -12.2263 -11.7160 -11.5429
    -9.9428  -8.9734  -7.7618  -7.4357  -6.6138  -6.5289  -6.2935  -6.1502

          k = 0.0307-0.5725 0.0000 ( 18166 PWs)   bands (ev):

   -24.3538 -24.0432 -23.8620 -23.5979 -12.3636 -12.3442 -11.5250 -11.3450
    -9.6733  -8.9142  -7.9995  -7.8153  -6.6891  -6.5136  -6.2144  -6.0822

          k = 0.2575-0.1328 0.0000 ( 18109 PWs)   bands (ev):

   -24.5791 -24.2243 -23.6381 -23.3443 -12.3286 -12.1788 -11.7021 -11.6195
    -9.9111  -8.9486  -7.7962  -7.4629  -6.5920  -6.4961  -6.2618  -6.1684

          k = 0.2421 0.1535 0.0000 ( 18132 PWs)   bands (ev):

   -24.5809 -24.2370 -23.6340 -23.3323 -12.0923 -12.0670 -11.9729 -11.7919
    -9.8154  -8.8494  -7.9483  -7.4938  -6.4429  -6.4142  -6.3294  -6.2428

          k = 0.2882-0.7053 0.0000 ( 18147 PWs)   bands (ev):

   -24.3541 -24.0768 -23.8452 -23.5775 -12.3021 -12.2678 -11.6755 -11.4858
    -9.4907  -8.6624  -8.3065  -7.9178  -6.5926  -6.4499  -6.2013  -6.1041

          k = 0.2728-0.4190 0.0000 ( 18128 PWs)   bands (ev):

   -24.3527 -24.0460 -23.8566 -23.5999 -12.4130 -12.3137 -11.5133 -11.3922
    -9.6171  -8.8368  -8.0652  -7.9006  -6.6266  -6.5286  -6.1663  -6.0876

          k =-0.5150 0.2656 0.0000 ( 18184 PWs)   bands (ev):

   -24.3508 -24.0487 -23.8516 -23.6025 -12.4261 -12.2727 -11.5126 -11.4700
    -9.6072  -8.8332  -8.0840  -7.8582  -6.6208  -6.5088  -6.1682  -6.0880

          k =-0.5303 0.5518 0.0000 ( 18128 PWs)   bands (ev):

   -24.3522 -24.0796 -23.8401 -23.5800 -12.3350 -12.2280 -11.6602 -11.5552
    -9.4478  -8.6210  -8.3446  -7.9606  -6.5534  -6.4430  -6.1797  -6.1147

          k =-0.4843-0.3070 0.0000 ( 18166 PWs)   bands (ev):

   -24.3519 -24.1092 -23.8292 -23.5603 -12.1277 -12.0502 -11.9992 -11.6952
    -9.2812  -8.6908  -8.2372  -8.1084  -6.4285  -6.3325  -6.2627  -6.2333

     highest occupied level (ev):    -6.0822

!    total energy              =    -176.31824876 Ry

     total all-electron energy =      -611.705794 Ry
     estimated scf accuracy    <          5.8E-14 Ry

     The total energy is the sum of the following terms:
     one-electron contribution =    -665.13010506 Ry
     hartree contribution      =     340.51883856 Ry
     xc contribution           =     -35.62526796 Ry
     ewald contribution        =     222.26921613 Ry
     one-center paw contrib.   =     -38.35093044 Ry

     convergence has been achieved in  12 iterations

     negative rho (up, down):  4.888E-04 0.000E+00

     Forces acting on atoms (cartesian axes, Ry/au):

     atom    1 type  1   force =    -0.00264409   -0.00094747    0.00046337
     atom    2 type  1   force =     0.00110698    0.00010857   -0.00541849
     atom    3 type  1   force =    -0.00073695   -0.00174526   -0.00030070
     atom    4 type  1   force =    -0.00009525    0.00075770    0.00260352
     atom    5 type  1   force =    -0.00025450    0.00071169   -0.00064058
     atom    6 type  1   force =    -0.00326509   -0.00502927   -0.00150227
     atom    7 type  1   force =    -0.00129915    0.00308728   -0.00193362
     atom    8 type  1   force =     0.00071781    0.00205082    0.00434384
     atom    9 type  2   force =     0.00050484   -0.00046840    0.00016458
     atom   10 type  2   force =    -0.00071067   -0.00191152    0.00344230
     atom   11 type  2   force =     0.00208843    0.00293794    0.00165922
     atom   12 type  2   force =     0.00458766    0.00044793   -0.00288116

     Total force =     0.013758     Total SCF correction =     0.000000
     Energy error            =      3.4E-04 Ry
     Gradient error          =      5.4E-03 Ry/Bohr

     number of scf cycles    =  21
     number of bfgs steps    =  19

     energy             old  =    -176.3179127794 Ry
     energy             new  =    -176.3182487593 Ry

     CASE: energy            _new < energy            _old

     new trust radius        =       0.0246713464 bohr
     new conv_thr            =            3.4E-12 Ry


ATOMIC_POSITIONS (angstrom)
H             4.4116381929        3.6216180046       11.2222569882
H             5.2720584827        4.2658602977       10.0660202604
H             3.3366820270        1.2666401180        8.0957830367
H             3.1855921825        2.9112087462        9.2695474621
H             4.0751540462        3.5417079621        8.1177145634
H             6.4132053640        4.1458467648        8.1148585495
H             2.9521164867        1.6933164268       11.2677305104
H             2.0551505114        3.0410553972       11.2028673148
O             5.2359965422        4.1611138101       11.0572600260
O             3.2391212095        3.0171528665        8.2791652116
O             5.4907387730        4.4842797386        8.2883094176
O             2.9679326325        2.6683066255       11.0581727372



     Writing config-only to output data dir ./output/f-BH.save/
     NEW-OLD atomic charge density approx. for the potential

     negative rho (up, down):  4.901E-04 0.000E+00

     total cpu time spent up to now is     1759.6 secs

     per-process dynamical memory:   210.7 Mb

     Self-consistent Calculation

     iteration #  1     ecut=    60.00 Ry     beta= 0.70
     Davidson diagonalization with overlap
     ethr =  1.00E-06,  avg # of iterations =  4.0

     negative rho (up, down):  4.904E-04 0.000E+00

     total cpu time spent up to now is     1767.6 secs

     total energy              =    -176.31853118 Ry
     estimated scf accuracy    <       0.00009928 Ry

     iteration #  2     ecut=    60.00 Ry     beta= 0.70
     Davidson diagonalization with overlap
     ethr =  3.10E-07,  avg # of iterations =  2.0

     negative rho (up, down):  4.904E-04 0.000E+00

     total cpu time spent up to now is     1772.9 secs

     total energy              =    -176.31854623 Ry
     estimated scf accuracy    <       0.00001181 Ry

     iteration #  3     ecut=    60.00 Ry     beta= 0.70
     Davidson diagonalization with overlap
     ethr =  3.69E-08,  avg # of iterations =  2.3

     negative rho (up, down):  4.904E-04 0.000E+00

     total cpu time spent up to now is     1778.4 secs

     total energy              =    -176.31854862 Ry
     estimated scf accuracy    <       0.00000240 Ry

     iteration #  4     ecut=    60.00 Ry     beta= 0.70
     Davidson diagonalization with overlap
     ethr =  7.50E-09,  avg # of iterations =  2.4

     negative rho (up, down):  4.904E-04 0.000E+00

     total cpu time spent up to now is     1783.7 secs

     total energy              =    -176.31854912 Ry
     estimated scf accuracy    <       0.00000010 Ry

     iteration #  5     ecut=    60.00 Ry     beta= 0.70
     Davidson diagonalization with overlap
     ethr =  3.03E-10,  avg # of iterations =  2.4

     negative rho (up, down):  4.904E-04 0.000E+00

     total cpu time spent up to now is     1789.2 secs

     total energy              =    -176.31854914 Ry
     estimated scf accuracy    <       0.00000001 Ry

     iteration #  6     ecut=    60.00 Ry     beta= 0.70
     Davidson diagonalization with overlap
     ethr =  4.13E-11,  avg # of iterations =  2.6

     negative rho (up, down):  4.904E-04 0.000E+00

     total cpu time spent up to now is     1795.0 secs

     total energy              =    -176.31854914 Ry
     estimated scf accuracy    <          1.5E-09 Ry

     iteration #  7     ecut=    60.00 Ry     beta= 0.70
     Davidson diagonalization with overlap
     ethr =  4.75E-12,  avg # of iterations =  3.1

     negative rho (up, down):  4.904E-04 0.000E+00

     total cpu time spent up to now is     1800.8 secs

     total energy              =    -176.31854914 Ry
     estimated scf accuracy    <          3.2E-10 Ry

     iteration #  8     ecut=    60.00 Ry     beta= 0.70
     Davidson diagonalization with overlap
     ethr =  1.01E-12,  avg # of iterations =  2.8

     negative rho (up, down):  4.904E-04 0.000E+00

     total cpu time spent up to now is     1806.7 secs

     total energy              =    -176.31854914 Ry
     estimated scf accuracy    <          3.0E-11 Ry

     iteration #  9     ecut=    60.00 Ry     beta= 0.70
     Davidson diagonalization with overlap
     ethr =  1.00E-13,  avg # of iterations =  2.0

     negative rho (up, down):  4.904E-04 0.000E+00

     total cpu time spent up to now is     1811.9 secs

     End of self-consistent calculation

          k = 0.0000 0.0000 0.0000 ( 18047 PWs)   bands (ev):

   -24.7082 -24.3374 -23.4686 -23.1696 -12.0766 -12.0180 -11.9666 -11.8512
   -10.1417  -9.0116  -7.5720  -7.1138  -6.5264  -6.4164  -6.3828  -6.2354

          k =-0.0153 0.2863 0.0000 ( 18132 PWs)   bands (ev):

   -24.5706 -24.2064 -23.6417 -23.3351 -12.2717 -12.2024 -11.7056 -11.5381
    -9.9518  -8.9624  -7.7619  -7.4229  -6.6099  -6.5136  -6.2844  -6.1394

          k = 0.0307-0.5725 0.0000 ( 18166 PWs)   bands (ev):

   -24.3437 -24.0119 -23.8773 -23.5899 -12.3411 -12.3184 -11.5187 -11.3455
    -9.6844  -8.9020  -7.9938  -7.7982  -6.6870  -6.5036  -6.2028  -6.0681

          k = 0.2575-0.1328 0.0000 ( 18109 PWs)   bands (ev):

   -24.5692 -24.2056 -23.6415 -23.3363 -12.3068 -12.1643 -11.6817 -11.6129
    -9.9189  -8.9381  -7.7916  -7.4450  -6.5864  -6.4909  -6.2611  -6.1555

          k = 0.2421 0.1535 0.0000 ( 18132 PWs)   bands (ev):

   -24.5708 -24.2182 -23.6385 -23.3235 -12.0833 -12.0472 -11.9543 -11.7729
    -9.8235  -8.8381  -7.9518  -7.4844  -6.4300  -6.4090  -6.3136  -6.2378

          k = 0.2882-0.7053 0.0000 ( 18147 PWs)   bands (ev):

   -24.3429 -24.0460 -23.8627 -23.5683 -12.2775 -12.2520 -11.6633 -11.4785
    -9.5010  -8.6522  -8.3009  -7.9057  -6.5906  -6.4384  -6.1902  -6.0910

          k = 0.2728-0.4190 0.0000 ( 18128 PWs)   bands (ev):

   -24.3413 -24.0139 -23.8736 -23.5928 -12.3895 -12.2950 -11.5009 -11.3905
    -9.6269  -8.8266  -8.0545  -7.8804  -6.6293  -6.5195  -6.1612  -6.0731

          k =-0.5150 0.2656 0.0000 ( 18184 PWs)   bands (ev):

   -24.3381 -24.0159 -23.8702 -23.5962 -12.4040 -12.2584 -11.4893 -11.4708
    -9.6157  -8.8239  -8.0688  -7.8364  -6.6244  -6.5033  -6.1694  -6.0735

          k =-0.5303 0.5518 0.0000 ( 18128 PWs)   bands (ev):

   -24.3398 -24.0481 -23.8593 -23.5714 -12.3139 -12.2166 -11.6429 -11.5430
    -9.4575  -8.6113  -8.3365  -7.9437  -6.5547  -6.4339  -6.1761  -6.0997

          k =-0.4843-0.3070 0.0000 ( 18166 PWs)   bands (ev):

   -24.3397 -24.0785 -23.8490 -23.5500 -12.1211 -12.0303 -11.9838 -11.6722
    -9.2914  -8.6769  -8.2447  -8.0932  -6.4315  -6.3087  -6.2544  -6.2243

     highest occupied level (ev):    -6.0681

!    total energy              =    -176.31854914 Ry

     total all-electron energy =      -611.706094 Ry
     estimated scf accuracy    <          3.3E-12 Ry

     The total energy is the sum of the following terms:
     one-electron contribution =    -665.77018178 Ry
     hartree contribution      =     340.85087966 Ry
     xc contribution           =     -35.62697608 Ry
     ewald contribution        =     222.57871182 Ry
     one-center paw contrib.   =     -38.35098275 Ry

     convergence has been achieved in   9 iterations

     negative rho (up, down):  4.904E-04 0.000E+00

     Forces acting on atoms (cartesian axes, Ry/au):

     atom    1 type  1   force =    -0.00098605   -0.00018426    0.00124077
     atom    2 type  1   force =     0.00218945    0.00004258   -0.00236455
     atom    3 type  1   force =    -0.00243810    0.00144958   -0.00017734
     atom    4 type  1   force =     0.00015881    0.00024515    0.00181349
     atom    5 type  1   force =    -0.00068866   -0.00034391    0.00049148
     atom    6 type  1   force =    -0.00101220   -0.00703496   -0.00033956
     atom    7 type  1   force =    -0.00068126    0.00260907   -0.00166061
     atom    8 type  1   force =    -0.00122652    0.00220759    0.00395683
     atom    9 type  2   force =    -0.00221635   -0.00121811   -0.00268310
     atom   10 type  2   force =    -0.00063623   -0.00154410    0.00236092
     atom   11 type  2   force =     0.00146994    0.00286738    0.00042447
     atom   12 type  2   force =     0.00606718    0.00090398   -0.00306281

     Total force =     0.013691     Total SCF correction =     0.000002
     Energy error            =      3.0E-04 Ry
     Gradient error          =      7.0E-03 Ry/Bohr

     number of scf cycles    =  22
     number of bfgs steps    =  20

     energy             old  =    -176.3182487593 Ry
     energy             new  =    -176.3185491421 Ry

     CASE: energy            _new < energy            _old

     new trust radius        =       0.0271384811 bohr
     new conv_thr            =            3.0E-12 Ry


ATOMIC_POSITIONS (angstrom)
H             4.4119460038        3.6210810536       11.2179274594
H             5.2734410278        4.2650250335       10.0594355422
H             3.3411707410        1.2608382722        8.0997807606
H             3.1852555368        2.9177223045        9.2767228704
H             4.0701566568        3.5454417750        8.1166282893
H             6.4061481444        4.1354348005        8.1079284080
H             2.9474922624        1.6954491759       11.2616028538
H             2.0629462810        3.0492769695       11.2107572273
O             5.2365433833        4.1623427321       11.0528757341
O             3.2391041901        3.0144563150        8.2849944433
O             5.4890645163        4.4798926233        8.2930692772
O             2.9721177072        2.6711457030       11.0579632122



     Writing config-only to output data dir ./output/f-BH.save/
     NEW-OLD atomic charge density approx. for the potential

     negative rho (up, down):  4.918E-04 0.000E+00

     total cpu time spent up to now is     1824.8 secs

     per-process dynamical memory:   210.2 Mb

     Self-consistent Calculation

     iteration #  1     ecut=    60.00 Ry     beta= 0.70
     Davidson diagonalization with overlap
     ethr =  1.00E-06,  avg # of iterations =  4.0

     negative rho (up, down):  4.920E-04 0.000E+00

     total cpu time spent up to now is     1832.9 secs

     total energy              =    -176.31881878 Ry
     estimated scf accuracy    <       0.00010335 Ry

     iteration #  2     ecut=    60.00 Ry     beta= 0.70
     Davidson diagonalization with overlap
     ethr =  3.23E-07,  avg # of iterations =  2.0

     negative rho (up, down):  4.921E-04 0.000E+00

     total cpu time spent up to now is     1838.2 secs

     total energy              =    -176.31883530 Ry
     estimated scf accuracy    <       0.00001729 Ry

     iteration #  3     ecut=    60.00 Ry     beta= 0.70
     Davidson diagonalization with overlap
     ethr =  5.40E-08,  avg # of iterations =  2.0

     negative rho (up, down):  4.920E-04 0.000E+00

     total cpu time spent up to now is     1843.7 secs

     total energy              =    -176.31883935 Ry
     estimated scf accuracy    <       0.00000297 Ry

     iteration #  4     ecut=    60.00 Ry     beta= 0.70
     Davidson diagonalization with overlap
     ethr =  9.28E-09,  avg # of iterations =  2.0

     negative rho (up, down):  4.920E-04 0.000E+00

     total cpu time spent up to now is     1848.8 secs

     total energy              =    -176.31883980 Ry
     estimated scf accuracy    <       0.00000010 Ry

     iteration #  5     ecut=    60.00 Ry     beta= 0.70
     Davidson diagonalization with overlap
     ethr =  3.01E-10,  avg # of iterations =  3.6

     negative rho (up, down):  4.920E-04 0.000E+00

     total cpu time spent up to now is     1855.1 secs

     total energy              =    -176.31883982 Ry
     estimated scf accuracy    <       0.00000005 Ry

     iteration #  6     ecut=    60.00 Ry     beta= 0.70
     Davidson diagonalization with overlap
     ethr =  1.54E-10,  avg # of iterations =  2.8

     negative rho (up, down):  4.920E-04 0.000E+00

     total cpu time spent up to now is     1860.6 secs

     total energy              =    -176.31883983 Ry
     estimated scf accuracy    <          2.8E-09 Ry

     iteration #  7     ecut=    60.00 Ry     beta= 0.70
     Davidson diagonalization with overlap
     ethr =  8.61E-12,  avg # of iterations =  4.1

     negative rho (up, down):  4.920E-04 0.000E+00

     total cpu time spent up to now is     1867.4 secs

     total energy              =    -176.31883983 Ry
     estimated scf accuracy    <          4.1E-09 Ry

     iteration #  8     ecut=    60.00 Ry     beta= 0.70
     Davidson diagonalization with overlap
     ethr =  8.61E-12,  avg # of iterations =  3.0

     negative rho (up, down):  4.920E-04 0.000E+00

     total cpu time spent up to now is     1873.6 secs

     total energy              =    -176.31883984 Ry
     estimated scf accuracy    <          8.9E-11 Ry

     iteration #  9     ecut=    60.00 Ry     beta= 0.70
     Davidson diagonalization with overlap
     ethr =  2.77E-13,  avg # of iterations =  3.2

     negative rho (up, down):  4.920E-04 0.000E+00

     total cpu time spent up to now is     1879.5 secs

     total energy              =    -176.31883984 Ry
     estimated scf accuracy    <          8.1E-11 Ry

     iteration # 10     ecut=    60.00 Ry     beta= 0.70
     Davidson diagonalization with overlap
     ethr =  2.54E-13,  avg # of iterations =  2.0

     negative rho (up, down):  4.920E-04 0.000E+00

     total cpu time spent up to now is     1884.3 secs

     total energy              =    -176.31883984 Ry
     estimated scf accuracy    <          1.1E-11 Ry

     iteration # 11     ecut=    60.00 Ry     beta= 0.70
     Davidson diagonalization with overlap
     ethr =  1.00E-13,  avg # of iterations =  2.0

     negative rho (up, down):  4.920E-04 0.000E+00

     total cpu time spent up to now is     1889.2 secs

     End of self-consistent calculation

          k = 0.0000 0.0000 0.0000 ( 18047 PWs)   bands (ev):

   -24.6963 -24.3153 -23.4655 -23.1551 -12.0608 -12.0138 -11.9371 -11.8398
   -10.1492  -8.9947  -7.5708  -7.0957  -6.5019  -6.4234  -6.3609  -6.2307

          k =-0.0153 0.2863 0.0000 ( 18132 PWs)   bands (ev):

   -24.5588 -24.1829 -23.6393 -23.3208 -12.2561 -12.1759 -11.7000 -11.5315
    -9.9588  -8.9461  -7.7563  -7.4024  -6.6046  -6.4963  -6.2721  -6.1294

          k = 0.0307-0.5725 0.0000 ( 18166 PWs)   bands (ev):

   -24.3314 -23.9733 -23.8885 -23.5773 -12.3304 -12.2841 -11.5176 -11.3441
    -9.6936  -8.8871  -7.9810  -7.7730  -6.6830  -6.4921  -6.1878  -6.0542

          k = 0.2575-0.1328 0.0000 ( 18109 PWs)   bands (ev):

   -24.5570 -24.1818 -23.6398 -23.3221 -12.2902 -12.1521 -11.6695 -11.5985
    -9.9244  -8.9219  -7.7812  -7.4203  -6.5808  -6.4813  -6.2559  -6.1444

          k = 0.2421 0.1535 0.0000 ( 18132 PWs)   bands (ev):

   -24.5579 -24.1931 -23.6388 -23.3098 -12.0741 -12.0337 -11.9371 -11.7526
    -9.8287  -8.8198  -7.9501  -7.4686  -6.4343  -6.3854  -6.2912  -6.2365

          k = 0.2882-0.7053 0.0000 ( 18147 PWs)   bands (ev):

   -24.3284 -24.0075 -23.8759 -23.5563 -12.2649 -12.2268 -11.6559 -11.4698
    -9.5083  -8.6372  -8.2897  -7.8865  -6.5884  -6.4258  -6.1762  -6.0769

          k = 0.2728-0.4190 0.0000 ( 18128 PWs)   bands (ev):

   -24.3283 -23.9747 -23.8861 -23.5800 -12.3718 -12.2764 -11.4947 -11.3844
    -9.6346  -8.8131  -8.0364  -7.8531  -6.6304  -6.5079  -6.1516  -6.0592

          k =-0.5150 0.2656 0.0000 ( 18184 PWs)   bands (ev):

   -24.3244 -23.9761 -23.8841 -23.5835 -12.3872 -12.2471 -11.4885 -11.4498
    -9.6221  -8.8105  -8.0465  -7.8071  -6.6270  -6.4940  -6.1667  -6.0595

          k =-0.5303 0.5518 0.0000 ( 18128 PWs)   bands (ev):

   -24.3246 -24.0092 -23.8737 -23.5593 -12.2976 -12.2059 -11.6326 -11.5253
    -9.4640  -8.5956  -8.3230  -7.9210  -6.5560  -6.4228  -6.1688  -6.0843

          k =-0.4843-0.3070 0.0000 ( 18166 PWs)   bands (ev):

   -24.3231 -24.0403 -23.8640 -23.5387 -12.1137 -12.0150 -11.9691 -11.6495
    -9.2964  -8.6555  -8.2417  -8.0807  -6.4359  -6.2845  -6.2447  -6.2113

     highest occupied level (ev):    -6.0542

!    total energy              =    -176.31883984 Ry

     total all-electron energy =      -611.706385 Ry
     estimated scf accuracy    <          6.2E-13 Ry

     The total energy is the sum of the following terms:
     one-electron contribution =    -666.57226995 Ry
     hartree contribution      =     341.26599304 Ry
     xc contribution           =     -35.62753299 Ry
     ewald contribution        =     222.96595085 Ry
     one-center paw contrib.   =     -38.35098078 Ry

     convergence has been achieved in  11 iterations

     negative rho (up, down):  4.920E-04 0.000E+00

     Forces acting on atoms (cartesian axes, Ry/au):

     atom    1 type  1   force =     0.00063168    0.00055340    0.00116413
     atom    2 type  1   force =     0.00247013   -0.00040068    0.00033372
     atom    3 type  1   force =    -0.00299220    0.00365670   -0.00006960
     atom    4 type  1   force =     0.00038707   -0.00012454    0.00123204
     atom    5 type  1   force =    -0.00120333   -0.00139074    0.00149460
     atom    6 type  1   force =     0.00039880   -0.00752025    0.00064925
     atom    7 type  1   force =     0.00034710    0.00144273   -0.00128259
     atom    8 type  1   force =    -0.00162712    0.00227280    0.00297999
     atom    9 type  2   force =    -0.00344697   -0.00116882   -0.00433180
     atom   10 type  2   force =    -0.00064523   -0.00101880    0.00105855
     atom   11 type  2   force =     0.00085555    0.00205836   -0.00068402
     atom   12 type  2   force =     0.00482452    0.00163986   -0.00254429

     Total force =     0.013719     Total SCF correction =     0.000001
     Energy error            =      2.9E-04 Ry
     Gradient error          =      7.5E-03 Ry/Bohr

     number of scf cycles    =  23
     number of bfgs steps    =  21

     energy             old  =    -176.3185491421 Ry
     energy             new  =    -176.3188398357 Ry

     CASE: energy            _new < energy            _old

     new trust radius        =       0.0407077216 bohr
     new conv_thr            =            2.9E-12 Ry


ATOMIC_POSITIONS (angstrom)
H             4.4102600274        3.6201071688       11.2120252127
H             5.2767139668        4.2633752945       10.0505876460
H             3.3445605057        1.2555019382        8.1049649413
H             3.1853491130        2.9244345657        9.2865977263
H             4.0638514138        3.5502498954        8.1181481391
H             6.3959712192        4.1180707447        8.1002498517
H             2.9434898976        1.7001403961       11.2510718426
H             2.0741678200        3.0606917965       11.2225900205
O             5.2347963234        4.1631364475       11.0458042721
O             3.2396558103        3.0097978685        8.2930386758
O             5.4867858222        4.4753369183        8.2982805141
O             2.9797845315        2.6772637240       11.0563272357



     Writing config-only to output data dir ./output/f-BH.save/
     NEW-OLD atomic charge density approx. for the potential

     negative rho (up, down):  4.938E-04 0.000E+00

     total cpu time spent up to now is     1901.9 secs

     per-process dynamical memory:   210.7 Mb

     Self-consistent Calculation

     iteration #  1     ecut=    60.00 Ry     beta= 0.70
     Davidson diagonalization with overlap
     ethr =  1.00E-06,  avg # of iterations =  4.0

     negative rho (up, down):  4.938E-04 0.000E+00

     total cpu time spent up to now is     1910.5 secs

     total energy              =    -176.31912592 Ry
     estimated scf accuracy    <       0.00022606 Ry

     iteration #  2     ecut=    60.00 Ry     beta= 0.70
     Davidson diagonalization with overlap
     ethr =  7.06E-07,  avg # of iterations =  2.1

     negative rho (up, down):  4.939E-04 0.000E+00

     total cpu time spent up to now is     1915.9 secs

     total energy              =    -176.31916347 Ry
     estimated scf accuracy    <       0.00005375 Ry

     iteration #  3     ecut=    60.00 Ry     beta= 0.70
     Davidson diagonalization with overlap
     ethr =  1.68E-07,  avg # of iterations =  2.1

     negative rho (up, down):  4.938E-04 0.000E+00

     total cpu time spent up to now is     1921.4 secs

     total energy              =    -176.31917670 Ry
     estimated scf accuracy    <       0.00000634 Ry

     iteration #  4     ecut=    60.00 Ry     beta= 0.70
     Davidson diagonalization with overlap
     ethr =  1.98E-08,  avg # of iterations =  2.1

     negative rho (up, down):  4.938E-04 0.000E+00

     total cpu time spent up to now is     1926.4 secs

     total energy              =    -176.31917741 Ry
     estimated scf accuracy    <       0.00000032 Ry

     iteration #  5     ecut=    60.00 Ry     beta= 0.70
     Davidson diagonalization with overlap
     ethr =  1.01E-09,  avg # of iterations =  3.0

     negative rho (up, down):  4.938E-04 0.000E+00

     total cpu time spent up to now is     1932.7 secs

     total energy              =    -176.31917751 Ry
     estimated scf accuracy    <       0.00000011 Ry

     iteration #  6     ecut=    60.00 Ry     beta= 0.70
     Davidson diagonalization with overlap
     ethr =  3.44E-10,  avg # of iterations =  3.0

     negative rho (up, down):  4.938E-04 0.000E+00

     total cpu time spent up to now is     1938.5 secs

     total energy              =    -176.31917754 Ry
     estimated scf accuracy    <          3.7E-09 Ry

     iteration #  7     ecut=    60.00 Ry     beta= 0.70
     Davidson diagonalization with overlap
     ethr =  1.16E-11,  avg # of iterations =  3.2

     negative rho (up, down):  4.938E-04 0.000E+00

     total cpu time spent up to now is     1944.8 secs

     total energy              =    -176.31917754 Ry
     estimated scf accuracy    <          3.8E-09 Ry

     iteration #  8     ecut=    60.00 Ry     beta= 0.70
     Davidson diagonalization with overlap
     ethr =  1.16E-11,  avg # of iterations =  2.9

     negative rho (up, down):  4.938E-04 0.000E+00

     total cpu time spent up to now is     1950.5 secs

     total energy              =    -176.31917754 Ry
     estimated scf accuracy    <          5.6E-11 Ry

     iteration #  9     ecut=    60.00 Ry     beta= 0.70
     Davidson diagonalization with overlap
     ethr =  1.76E-13,  avg # of iterations =  3.0

     negative rho (up, down):  4.938E-04 0.000E+00

     total cpu time spent up to now is     1957.0 secs

     total energy              =    -176.31917754 Ry
     estimated scf accuracy    <          3.2E-11 Ry

     iteration # 10     ecut=    60.00 Ry     beta= 0.70
     Davidson diagonalization with overlap
     ethr =  1.00E-13,  avg # of iterations =  2.1

     negative rho (up, down):  4.938E-04 0.000E+00

     total cpu time spent up to now is     1962.0 secs

     total energy              =    -176.31917754 Ry
     estimated scf accuracy    <          3.5E-12 Ry

     iteration # 11     ecut=    60.00 Ry     beta= 0.70
     Davidson diagonalization with overlap
     ethr =  1.00E-13,  avg # of iterations =  1.0

     negative rho (up, down):  4.938E-04 0.000E+00

     total cpu time spent up to now is     1966.1 secs

     End of self-consistent calculation

          k = 0.0000 0.0000 0.0000 ( 18047 PWs)   bands (ev):

   -24.6804 -24.2856 -23.4557 -23.1326 -12.0385 -12.0201 -11.9101 -11.8214
   -10.1582  -8.9704  -7.5630  -7.0656  -6.4753  -6.4270  -6.3321  -6.2288

          k =-0.0153 0.2863 0.0000 ( 18132 PWs)   bands (ev):

   -24.5431 -24.1524 -23.6296 -23.2983 -12.2419 -12.1454 -11.6990 -11.5245
    -9.9662  -8.9224  -7.7458  -7.3723  -6.5955  -6.4756  -6.2522  -6.1190

          k = 0.0307-0.5725 0.0000 ( 18166 PWs)   bands (ev):

   -24.3159 -23.9269 -23.8924 -23.5562 -12.3187 -12.2475 -11.5226 -11.3438
    -9.7022  -8.8647  -7.9666  -7.7364  -6.6739  -6.4787  -6.1643  -6.0382

          k = 0.2575-0.1328 0.0000 ( 18109 PWs)   bands (ev):

   -24.5413 -24.1513 -23.6303 -23.2992 -12.2753 -12.1432 -11.6628 -11.5757
    -9.9307  -8.8989  -7.7629  -7.3835  -6.5724  -6.4698  -6.2440  -6.1343

          k = 0.2421 0.1535 0.0000 ( 18132 PWs)   bands (ev):

   -24.5404 -24.1595 -23.6329 -23.2895 -12.0697 -12.0194 -11.9163 -11.7299
    -9.8340  -8.7941  -7.9422  -7.4432  -6.4401  -6.3553  -6.2628  -6.2366

          k = 0.2882-0.7053 0.0000 ( 18147 PWs)   bands (ev):

   -24.3094 -23.9555 -23.8866 -23.5387 -12.2559 -12.1954 -11.6518 -11.4606
    -9.5144  -8.6150  -8.2738  -7.8585  -6.5834  -6.4128  -6.1550  -6.0601

          k = 0.2728-0.4190 0.0000 ( 18128 PWs)   bands (ev):

   -24.3130 -23.9264 -23.8925 -23.5582 -12.3559 -12.2577 -11.4944 -11.3748
    -9.6423  -8.7937  -8.0117  -7.8143  -6.6274  -6.4948  -6.1337  -6.0449

          k =-0.5150 0.2656 0.0000 ( 18184 PWs)   bands (ev):

   -24.3092 -23.9258 -23.8932 -23.5607 -12.3726 -12.2398 -11.4947 -11.4200
    -9.6294  -8.7927  -8.0129  -7.7645  -6.6270  -6.4828  -6.1588  -6.0451

          k =-0.5303 0.5518 0.0000 ( 18128 PWs)   bands (ev):

   -24.3057 -23.9573 -23.8849 -23.5411 -12.2840 -12.1959 -11.6256 -11.5014
    -9.4705  -8.5748  -8.3008  -7.8870  -6.5555  -6.4123  -6.1553  -6.0666

          k =-0.4843-0.3070 0.0000 ( 18166 PWs)   bands (ev):

   -24.3004 -23.9879 -23.8765 -23.5246 -12.1118 -11.9951 -11.9528 -11.6247
    -9.2991  -8.6274  -8.2284  -8.0657  -6.4390  -6.2744  -6.2249  -6.1859

     highest occupied level (ev):    -6.0382

!    total energy              =    -176.31917754 Ry

     total all-electron energy =      -611.706722 Ry
     estimated scf accuracy    <          3.6E-14 Ry

     The total energy is the sum of the following terms:
     one-electron contribution =    -667.76225859 Ry
     hartree contribution      =     341.87890028 Ry
     xc contribution           =     -35.62710365 Ry
     ewald contribution        =     223.54220228 Ry
     one-center paw contrib.   =     -38.35091786 Ry

     convergence has been achieved in  11 iterations

     negative rho (up, down):  4.938E-04 0.000E+00

     Forces acting on atoms (cartesian axes, Ry/au):

     atom    1 type  1   force =     0.00220574    0.00124767    0.00050880
     atom    2 type  1   force =     0.00210862   -0.00113202    0.00256834
     atom    3 type  1   force =    -0.00237061    0.00502985   -0.00006552
     atom    4 type  1   force =     0.00043956   -0.00052406    0.00024825
     atom    5 type  1   force =    -0.00166443   -0.00258567    0.00222681
     atom    6 type  1   force =     0.00129955   -0.00625959    0.00167244
     atom    7 type  1   force =     0.00174992    0.00033976   -0.00082046
     atom    8 type  1   force =    -0.00079055    0.00201586    0.00118768
     atom    9 type  2   force =    -0.00317816   -0.00020871   -0.00463608
     atom   10 type  2   force =    -0.00087787   -0.00036146    0.00005582
     atom   11 type  2   force =     0.00002396    0.00049468   -0.00185133
     atom   12 type  2   force =     0.00105424    0.00194367   -0.00109476

     Total force =     0.012680     Total SCF correction =     0.000000
     Energy error            =      3.4E-04 Ry
     Gradient error          =      6.3E-03 Ry/Bohr

     number of scf cycles    =  24
     number of bfgs steps    =  22

     energy             old  =    -176.3188398357 Ry
     energy             new  =    -176.3191775398 Ry

     CASE: energy            _new < energy            _old

     new trust radius        =       0.0349290502 bohr
     new conv_thr            =            3.4E-12 Ry


ATOMIC_POSITIONS (angstrom)
H             4.4076932113        3.6197693513       11.2072279408
H             5.2803482389        4.2611158177       10.0443185968
H             3.3446958712        1.2542978822        8.1085333401
H             3.1859382208        2.9272265339        9.2936895086
H             4.0595142315        3.5530610785        8.1226769963
H             6.3878200461        4.1018709752        8.0966761372
H             2.9436433414        1.7051254119       11.2410056067
H             2.0827734860        3.0697428621       11.2322885375
O             5.2315766624        4.1638418018       11.0396740672
O             3.2402114609        3.0053754685        8.2990698152
O             5.4849052827        4.4731474973        8.3004167989
O             2.9862663976        2.6835320778       11.0541087326



     Writing config-only to output data dir ./output/f-BH.save/
     NEW-OLD atomic charge density approx. for the potential

     negative rho (up, down):  4.954E-04 0.000E+00

     total cpu time spent up to now is     1978.8 secs

     per-process dynamical memory:   210.2 Mb

     Self-consistent Calculation

     iteration #  1     ecut=    60.00 Ry     beta= 0.70
     Davidson diagonalization with overlap
     ethr =  1.00E-06,  avg # of iterations =  4.0

     negative rho (up, down):  4.949E-04 0.000E+00

     total cpu time spent up to now is     1987.2 secs

     total energy              =    -176.31934647 Ry
     estimated scf accuracy    <       0.00015552 Ry

     iteration #  2     ecut=    60.00 Ry     beta= 0.70
     Davidson diagonalization with overlap
     ethr =  4.86E-07,  avg # of iterations =  2.9

     negative rho (up, down):  4.950E-04 0.000E+00

     total cpu time spent up to now is     1992.7 secs

     total energy              =    -176.31937088 Ry
     estimated scf accuracy    <       0.00005113 Ry

     iteration #  3     ecut=    60.00 Ry     beta= 0.70
     Davidson diagonalization with overlap
     ethr =  1.60E-07,  avg # of iterations =  3.2

     negative rho (up, down):  4.948E-04 0.000E+00

     total cpu time spent up to now is     1998.3 secs

     total energy              =    -176.31938413 Ry
     estimated scf accuracy    <       0.00000586 Ry

     iteration #  4     ecut=    60.00 Ry     beta= 0.70
     Davidson diagonalization with overlap
     ethr =  1.83E-08,  avg # of iterations =  2.8

     negative rho (up, down):  4.948E-04 0.000E+00

     total cpu time spent up to now is     2003.3 secs

     total energy              =    -176.31938486 Ry
     estimated scf accuracy    <       0.00000029 Ry

     iteration #  5     ecut=    60.00 Ry     beta= 0.70
     Davidson diagonalization with overlap
     ethr =  9.01E-10,  avg # of iterations =  3.2

     negative rho (up, down):  4.948E-04 0.000E+00

     total cpu time spent up to now is     2009.6 secs

     total energy              =    -176.31938497 Ry
     estimated scf accuracy    <       0.00000009 Ry

     iteration #  6     ecut=    60.00 Ry     beta= 0.70
     Davidson diagonalization with overlap
     ethr =  2.66E-10,  avg # of iterations =  2.3

     negative rho (up, down):  4.948E-04 0.000E+00

     total cpu time spent up to now is     2014.9 secs

     total energy              =    -176.31938498 Ry
     estimated scf accuracy    <       0.00000001 Ry

     iteration #  7     ecut=    60.00 Ry     beta= 0.70
     Davidson diagonalization with overlap
     ethr =  3.95E-11,  avg # of iterations =  3.1

     negative rho (up, down):  4.948E-04 0.000E+00

     total cpu time spent up to now is     2021.0 secs

     total energy              =    -176.31938498 Ry
     estimated scf accuracy    <          2.2E-09 Ry

     iteration #  8     ecut=    60.00 Ry     beta= 0.70
     Davidson diagonalization with overlap
     ethr =  6.76E-12,  avg # of iterations =  2.3

     negative rho (up, down):  4.948E-04 0.000E+00

     total cpu time spent up to now is     2026.5 secs

     total energy              =    -176.31938498 Ry
     estimated scf accuracy    <          4.4E-11 Ry

     iteration #  9     ecut=    60.00 Ry     beta= 0.70
     Davidson diagonalization with overlap
     ethr =  1.39E-13,  avg # of iterations =  4.8

     negative rho (up, down):  4.948E-04 0.000E+00

     total cpu time spent up to now is     2033.6 secs

     total energy              =    -176.31938498 Ry
     estimated scf accuracy    <          4.3E-11 Ry

     iteration # 10     ecut=    60.00 Ry     beta= 0.70
     Davidson diagonalization with overlap
     ethr =  1.35E-13,  avg # of iterations =  2.0

     negative rho (up, down):  4.948E-04 0.000E+00

     total cpu time spent up to now is     2038.8 secs

     End of self-consistent calculation

          k = 0.0000 0.0000 0.0000 ( 18047 PWs)   bands (ev):

   -24.6702 -24.2675 -23.4465 -23.1175 -12.0358 -12.0265 -11.9001 -11.8147
   -10.1639  -8.9551  -7.5516  -7.0404  -6.4660  -6.4212  -6.3186  -6.2299

          k =-0.0153 0.2863 0.0000 ( 18132 PWs)   bands (ev):

   -24.5329 -24.1345 -23.6202 -23.2828 -12.2377 -12.1359 -11.7030 -11.5275
    -9.9691  -8.9057  -7.7370  -7.3519  -6.5873  -6.4650  -6.2372  -6.1149

          k = 0.0307-0.5725 0.0000 ( 18166 PWs)   bands (ev):

   -24.3055 -23.9128 -23.8793 -23.5406 -12.3136 -12.2360 -11.5310 -11.3517
    -9.7034  -8.8453  -7.9626  -7.7131  -6.6645  -6.4717  -6.1464  -6.0298

          k = 0.2575-0.1328 0.0000 ( 18109 PWs)   bands (ev):

   -24.5317 -24.1337 -23.6204 -23.2831 -12.2728 -12.1486 -11.6612 -11.5675
    -9.9342  -8.8842  -7.7468  -7.3566  -6.5649  -6.4667  -6.2331  -6.1315

          k = 0.2421 0.1535 0.0000 ( 18132 PWs)   bands (ev):

   -24.5288 -24.1390 -23.6261 -23.2765 -12.0792 -12.0119 -11.9073 -11.7222
    -9.8366  -8.7786  -7.9311  -7.4222  -6.4412  -6.3400  -6.2582  -6.2286

          k = 0.2882-0.7053 0.0000 ( 18147 PWs)   bands (ev):

   -24.2961 -23.9252 -23.8892 -23.5276 -12.2542 -12.1852 -11.6538 -11.4620
    -9.5147  -8.5980  -8.2642  -7.8397  -6.5774  -6.4088  -6.1399  -6.0516

          k = 0.2728-0.4190 0.0000 ( 18128 PWs)   bands (ev):

   -24.3039 -23.9099 -23.8814 -23.5413 -12.3515 -12.2567 -11.4986 -11.3753
    -9.6444  -8.7782  -7.9977  -7.7886  -6.6212  -6.4895  -6.1179  -6.0393

          k =-0.5150 0.2656 0.0000 ( 18184 PWs)   bands (ev):

   -24.3015 -23.9060 -23.8850 -23.5425 -12.3705 -12.2468 -11.4996 -11.4091
    -9.6330  -8.7810  -7.9892  -7.7343  -6.6235  -6.4789  -6.1508  -6.0391

          k =-0.5303 0.5518 0.0000 ( 18128 PWs)   bands (ev):

   -24.2938 -23.9273 -23.8866 -23.5288 -12.2826 -12.1988 -11.6245 -11.4921
    -9.4731  -8.5626  -8.2831  -7.8612  -6.5522  -6.4112  -6.1446  -6.0581

          k =-0.4843-0.3070 0.0000 ( 18166 PWs)   bands (ev):

   -24.2839 -23.9568 -23.8799 -23.5177 -12.1213 -11.9827 -11.9489 -11.6151
    -9.2979  -8.6129  -8.2136  -8.0525  -6.4376  -6.2822  -6.2111  -6.1669

     highest occupied level (ev):    -6.0298

!    total energy              =    -176.31938498 Ry

     total all-electron energy =      -611.706930 Ry
     estimated scf accuracy    <          6.5E-13 Ry

     The total energy is the sum of the following terms:
     one-electron contribution =    -668.71313830 Ry
     hartree contribution      =     342.36436227 Ry
     xc contribution           =     -35.62671784 Ry
     ewald contribution        =     224.00691571 Ry
     one-center paw contrib.   =     -38.35080683 Ry

     convergence has been achieved in  10 iterations

     negative rho (up, down):  4.948E-04 0.000E+00

     Forces acting on atoms (cartesian axes, Ry/au):

     atom    1 type  1   force =     0.00262656    0.00141205   -0.00016130
     atom    2 type  1   force =     0.00134932   -0.00152687    0.00263650
     atom    3 type  1   force =    -0.00069451    0.00395900   -0.00014820
     atom    4 type  1   force =     0.00005995   -0.00082512   -0.00012234
     atom    5 type  1   force =    -0.00154318   -0.00301821    0.00189026
     atom    6 type  1   force =     0.00108727   -0.00344141    0.00204953
     atom    7 type  1   force =     0.00230608   -0.00045865   -0.00030319
     atom    8 type  1   force =     0.00052744    0.00133058   -0.00038343
     atom    9 type  2   force =    -0.00135432    0.00107046   -0.00317878
     atom   10 type  2   force =    -0.00127683   -0.00006670   -0.00020859
     atom   11 type  2   force =    -0.00065037   -0.00065351   -0.00233953
     atom   12 type  2   force =    -0.00243741    0.00221837    0.00026908

     Total force =     0.010442     Total SCF correction =     0.000002
     Energy error            =      2.1E-04 Ry
     Gradient error          =      4.0E-03 Ry/Bohr

     number of scf cycles    =  25
     number of bfgs steps    =  23

     energy             old  =    -176.3191775398 Ry
     energy             new  =    -176.3193849821 Ry

     CASE: energy            _new < energy            _old

     new trust radius        =       0.0188320534 bohr
     new conv_thr            =            2.1E-12 Ry


ATOMIC_POSITIONS (angstrom)
H             4.4069785525        3.6204966812       11.2050451747
H             5.2828509846        4.2590160511       10.0420357933
H             3.3435402945        1.2560182560        8.1098103174
H             3.1862486700        2.9269270334        9.2964382125
H             4.0576226354        3.5526881703        8.1267935012
H             6.3844102824        4.0925193080        8.0971566498
H             2.9460965183        1.7076772163       11.2358740072
H             2.0860616238        3.0741820882       11.2365364779
O             5.2295601320        4.1652658368       11.0364577380
O             3.2395361833        3.0029147140        8.3014310151
O             5.4840428803        4.4730983594        8.2993077688
O             2.9884376936        2.6873030433       11.0527994219



     Writing config-only to output data dir ./output/f-BH.save/
     NEW-OLD atomic charge density approx. for the potential

     negative rho (up, down):  4.957E-04 0.000E+00

     total cpu time spent up to now is     2051.5 secs

     per-process dynamical memory:   210.7 Mb

     Self-consistent Calculation

     iteration #  1     ecut=    60.00 Ry     beta= 0.70
     Davidson diagonalization with overlap
     ethr =  1.00E-06,  avg # of iterations =  3.0

     negative rho (up, down):  4.952E-04 0.000E+00

     total cpu time spent up to now is     2058.7 secs

     total energy              =    -176.31948600 Ry
     estimated scf accuracy    <       0.00003633 Ry

     iteration #  2     ecut=    60.00 Ry     beta= 0.70
     Davidson diagonalization with overlap
     ethr =  1.14E-07,  avg # of iterations =  3.0

     negative rho (up, down):  4.952E-04 0.000E+00

     total cpu time spent up to now is     2064.6 secs

     total energy              =    -176.31949282 Ry
     estimated scf accuracy    <       0.00001282 Ry

     iteration #  3     ecut=    60.00 Ry     beta= 0.70
     Davidson diagonalization with overlap
     ethr =  4.01E-08,  avg # of iterations =  3.1

     negative rho (up, down):  4.951E-04 0.000E+00

     total cpu time spent up to now is     2070.2 secs

     total energy              =    -176.31949621 Ry
     estimated scf accuracy    <       0.00000149 Ry

     iteration #  4     ecut=    60.00 Ry     beta= 0.70
     Davidson diagonalization with overlap
     ethr =  4.65E-09,  avg # of iterations =  2.1

     negative rho (up, down):  4.950E-04 0.000E+00

     total cpu time spent up to now is     2074.9 secs

     total energy              =    -176.31949634 Ry
     estimated scf accuracy    <       0.00000011 Ry

     iteration #  5     ecut=    60.00 Ry     beta= 0.70
     Davidson diagonalization with overlap
     ethr =  3.42E-10,  avg # of iterations =  4.1

     negative rho (up, down):  4.951E-04 0.000E+00

     total cpu time spent up to now is     2081.4 secs

     total energy              =    -176.31949639 Ry
     estimated scf accuracy    <       0.00000005 Ry

     iteration #  6     ecut=    60.00 Ry     beta= 0.70
     Davidson diagonalization with overlap
     ethr =  1.47E-10,  avg # of iterations =  2.0

     negative rho (up, down):  4.951E-04 0.000E+00

     total cpu time spent up to now is     2086.4 secs

     total energy              =    -176.31949639 Ry
     estimated scf accuracy    <          5.1E-09 Ry

     iteration #  7     ecut=    60.00 Ry     beta= 0.70
     Davidson diagonalization with overlap
     ethr =  1.58E-11,  avg # of iterations =  4.1

     negative rho (up, down):  4.951E-04 0.000E+00

     total cpu time spent up to now is     2093.0 secs

     total energy              =    -176.31949639 Ry
     estimated scf accuracy    <          5.3E-09 Ry

     iteration #  8     ecut=    60.00 Ry     beta= 0.70
     Davidson diagonalization with overlap
     ethr =  1.58E-11,  avg # of iterations =  2.1

     negative rho (up, down):  4.951E-04 0.000E+00

     total cpu time spent up to now is     2098.1 secs

     total energy              =    -176.31949640 Ry
     estimated scf accuracy    <          3.5E-10 Ry

     iteration #  9     ecut=    60.00 Ry     beta= 0.70
     Davidson diagonalization with overlap
     ethr =  1.09E-12,  avg # of iterations =  3.9

     negative rho (up, down):  4.951E-04 0.000E+00

     total cpu time spent up to now is     2104.8 secs

     total energy              =    -176.31949640 Ry
     estimated scf accuracy    <          8.2E-11 Ry

     iteration # 10     ecut=    60.00 Ry     beta= 0.70
     Davidson diagonalization with overlap
     ethr =  2.55E-13,  avg # of iterations =  2.0

     negative rho (up, down):  4.951E-04 0.000E+00

     total cpu time spent up to now is     2109.5 secs

     total energy              =    -176.31949640 Ry
     estimated scf accuracy    <          2.7E-11 Ry

     iteration # 11     ecut=    60.00 Ry     beta= 0.70
     Davidson diagonalization with overlap
     ethr =  1.00E-13,  avg # of iterations =  2.0

     negative rho (up, down):  4.951E-04 0.000E+00

     total cpu time spent up to now is     2114.2 secs

     total energy              =    -176.31949640 Ry
     estimated scf accuracy    <          3.9E-12 Ry

     iteration # 12     ecut=    60.00 Ry     beta= 0.70
     Davidson diagonalization with overlap
     ethr =  1.00E-13,  avg # of iterations =  1.1

     negative rho (up, down):  4.951E-04 0.000E+00

     total cpu time spent up to now is     2118.3 secs

     End of self-consistent calculation

          k = 0.0000 0.0000 0.0000 ( 18047 PWs)   bands (ev):

   -24.6681 -24.2639 -23.4431 -23.1142 -12.0471 -12.0276 -11.9019 -11.8228
   -10.1646  -8.9539  -7.5433  -7.0307  -6.4681  -6.4164  -6.3215  -6.2311

          k =-0.0153 0.2863 0.0000 ( 18132 PWs)   bands (ev):

   -24.5307 -24.1311 -23.6173 -23.2793 -12.2392 -12.1451 -11.7075 -11.5374
    -9.9667  -8.9014  -7.7336  -7.3489  -6.5838  -6.4645  -6.2329  -6.1160

          k = 0.0307-0.5725 0.0000 ( 18166 PWs)   bands (ev):

   -24.3030 -23.9075 -23.8793 -23.5365 -12.3124 -12.2471 -11.5371 -11.3636
    -9.6972  -8.8353  -7.9666  -7.7136  -6.6598  -6.4705  -6.1407  -6.0292

          k = 0.2575-0.1328 0.0000 ( 18109 PWs)   bands (ev):

   -24.5299 -24.1304 -23.6168 -23.2794 -12.2773 -12.1604 -11.6610 -11.5757
    -9.9333  -8.8822  -7.7400  -7.3494  -6.5607  -6.4705  -6.2293  -6.1335

          k = 0.2421 0.1535 0.0000 ( 18132 PWs)   bands (ev):

   -24.5261 -24.1350 -23.6235 -23.2741 -12.0890 -12.0137 -11.9120 -11.7275
    -9.8358  -8.7778  -7.9230  -7.4140  -6.4384  -6.3407  -6.2609  -6.2298

          k = 0.2882-0.7053 0.0000 ( 18147 PWs)   bands (ev):

   -24.2924 -23.9244 -23.8838 -23.5258 -12.2549 -12.1952 -11.6583 -11.4710
    -9.5096  -8.5909  -8.2638  -7.8379  -6.5733  -6.4102  -6.1363  -6.0530

          k = 0.2728-0.4190 0.0000 ( 18128 PWs)   bands (ev):

   -24.3023 -23.9058 -23.8795 -23.5366 -12.3537 -12.2683 -11.5021 -11.3852
    -9.6398  -8.7712  -7.9979  -7.7863  -6.6164  -6.4904  -6.1117  -6.0410

          k =-0.5150 0.2656 0.0000 ( 18184 PWs)   bands (ev):

   -24.3008 -23.9036 -23.8808 -23.5374 -12.3752 -12.2594 -11.5012 -11.4165
    -9.6305  -8.7782  -7.9840  -7.7282  -6.6196  -6.4809  -6.1473  -6.0403

          k =-0.5303 0.5518 0.0000 ( 18128 PWs)   bands (ev):

   -24.2910 -23.9273 -23.8797 -23.5265 -12.2867 -12.2099 -11.6269 -11.4981
    -9.4704  -8.5606  -8.2783  -7.8540  -6.5484  -6.4148  -6.1418  -6.0599

          k =-0.4843-0.3070 0.0000 ( 18166 PWs)   bands (ev):

   -24.2787 -23.9573 -23.8729 -23.5179 -12.1309 -11.9809 -11.9578 -11.6194
    -9.2938  -8.6162  -8.2014  -8.0485  -6.4334  -6.2870  -6.2109  -6.1683

     highest occupied level (ev):    -6.0292

!    total energy              =    -176.31949640 Ry

     total all-electron energy =      -611.707041 Ry
     estimated scf accuracy    <          1.3E-13 Ry

     The total energy is the sum of the following terms:
     one-electron contribution =    -669.09573874 Ry
     hartree contribution      =     342.55618488 Ry
     xc contribution           =     -35.62674957 Ry
     ewald contribution        =     224.19751962 Ry
     one-center paw contrib.   =     -38.35071258 Ry

     convergence has been achieved in  12 iterations

     negative rho (up, down):  4.951E-04 0.000E+00

     Forces acting on atoms (cartesian axes, Ry/au):

     atom    1 type  1   force =     0.00196059    0.00114944   -0.00037359
     atom    2 type  1   force =     0.00083262   -0.00133500    0.00102805
     atom    3 type  1   force =     0.00077673    0.00185413   -0.00025398
     atom    4 type  1   force =    -0.00049355   -0.00101042   -0.00007264
     atom    5 type  1   force =    -0.00111587   -0.00266186    0.00098850
     atom    6 type  1   force =     0.00031665   -0.00083535    0.00184619
     atom    7 type  1   force =     0.00195764   -0.00003279   -0.00011567
     atom    8 type  1   force =     0.00085108    0.00080326   -0.00093497
     atom    9 type  2   force =     0.00040287    0.00180838   -0.00112989
     atom   10 type  2   force =    -0.00141419   -0.00018055    0.00030040
     atom   11 type  2   force =    -0.00098305   -0.00116477   -0.00212923
     atom   12 type  2   force =    -0.00309153    0.00160553    0.00084682

     Total force =     0.007769     Total SCF correction =     0.000000
     Energy error            =      1.1E-04 Ry
     Gradient error          =      3.1E-03 Ry/Bohr

     number of scf cycles    =  26
     number of bfgs steps    =  24

     energy             old  =    -176.3193849821 Ry
     energy             new  =    -176.3194963957 Ry

     CASE: energy            _new < energy            _old

     new trust radius        =       0.0135998496 bohr
     new conv_thr            =            1.1E-12 Ry


ATOMIC_POSITIONS (angstrom)
H             4.4080911083        3.6222655519       11.2037776226
H             5.2850778813        4.2565414919       10.0409522228
H             3.3428584849        1.2586408828        8.1100846729
H             3.1859993295        2.9254204061        9.2977242612
H             4.0561728247        3.5501043330        8.1304542187
H             6.3827668836        4.0859278788        8.0995326194
H             2.9497220948        1.7092923270       11.2329085157
H             2.0869275389        3.0774246436       11.2385105121
O             5.2288819470        4.1680657823       11.0344228820
O             3.2375073864        3.0010586094        8.3027602205
O             5.4832371842        4.4734334805        8.2964056951
O             2.9881437871        2.6899313707       11.0521526349



     Writing config-only to output data dir ./output/f-BH.save/
     NEW-OLD atomic charge density approx. for the potential

     negative rho (up, down):  4.957E-04 0.000E+00

     total cpu time spent up to now is     2131.0 secs

     per-process dynamical memory:   210.2 Mb

     Self-consistent Calculation

     iteration #  1     ecut=    60.00 Ry     beta= 0.70
     Davidson diagonalization with overlap
     ethr =  1.00E-06,  avg # of iterations =  3.0

     Threshold (ethr) on eigenvalues was too large:
     Diagonalizing with lowered threshold

     Davidson diagonalization with overlap
     ethr =  7.14E-08,  avg # of iterations =  2.0

     negative rho (up, down):  4.952E-04 0.000E+00

     total cpu time spent up to now is     2142.1 secs

     total energy              =    -176.31958065 Ry
     estimated scf accuracy    <       0.00002588 Ry

     iteration #  2     ecut=    60.00 Ry     beta= 0.70
     Davidson diagonalization with overlap
     ethr =  8.09E-08,  avg # of iterations =  2.0

     negative rho (up, down):  4.950E-04 0.000E+00

     total cpu time spent up to now is     2147.3 secs

     total energy              =    -176.31958384 Ry
     estimated scf accuracy    <       0.00000213 Ry

     iteration #  3     ecut=    60.00 Ry     beta= 0.70
     Davidson diagonalization with overlap
     ethr =  6.65E-09,  avg # of iterations =  2.0

     negative rho (up, down):  4.950E-04 0.000E+00

     total cpu time spent up to now is     2152.9 secs

     total energy              =    -176.31958423 Ry
     estimated scf accuracy    <       0.00000045 Ry

     iteration #  4     ecut=    60.00 Ry     beta= 0.70
     Davidson diagonalization with overlap
     ethr =  1.41E-09,  avg # of iterations =  2.0

     negative rho (up, down):  4.950E-04 0.000E+00

     total cpu time spent up to now is     2158.3 secs

     total energy              =    -176.31958431 Ry
     estimated scf accuracy    <       0.00000002 Ry

     iteration #  5     ecut=    60.00 Ry     beta= 0.70
     Davidson diagonalization with overlap
     ethr =  5.32E-11,  avg # of iterations =  2.2

     negative rho (up, down):  4.950E-04 0.000E+00

     total cpu time spent up to now is     2163.8 secs

     total energy              =    -176.31958431 Ry
     estimated scf accuracy    <          4.0E-09 Ry

     iteration #  6     ecut=    60.00 Ry     beta= 0.70
     Davidson diagonalization with overlap
     ethr =  1.25E-11,  avg # of iterations =  2.1

     negative rho (up, down):  4.950E-04 0.000E+00

     total cpu time spent up to now is     2169.3 secs

     total energy              =    -176.31958432 Ry
     estimated scf accuracy    <          1.5E-10 Ry

     iteration #  7     ecut=    60.00 Ry     beta= 0.70
     Davidson diagonalization with overlap
     ethr =  4.70E-13,  avg # of iterations =  3.1

     negative rho (up, down):  4.950E-04 0.000E+00

     total cpu time spent up to now is     2176.0 secs

     total energy              =    -176.31958432 Ry
     estimated scf accuracy    <          1.6E-10 Ry

     iteration #  8     ecut=    60.00 Ry     beta= 0.70
     Davidson diagonalization with overlap
     ethr =  4.70E-13,  avg # of iterations =  2.6

     negative rho (up, down):  4.950E-04 0.000E+00

     total cpu time spent up to now is     2181.5 secs

     End of self-consistent calculation

          k = 0.0000 0.0000 0.0000 ( 18047 PWs)   bands (ev):

   -24.6710 -24.2667 -23.4439 -23.1158 -12.0553 -12.0338 -11.9077 -11.8380
   -10.1633  -8.9599  -7.5377  -7.0292  -6.4755  -6.4133  -6.3312  -6.2311

          k =-0.0153 0.2863 0.0000 ( 18132 PWs)   bands (ev):

   -24.5335 -24.1339 -23.6183 -23.2808 -12.2426 -12.1603 -11.7134 -11.5500
    -9.9620  -8.9033  -7.7337  -7.3551  -6.5837  -6.4672  -6.2338  -6.1184

          k = 0.0307-0.5725 0.0000 ( 18166 PWs)   bands (ev):

   -24.3058 -23.9107 -23.8806 -23.5374 -12.3112 -12.2673 -11.5440 -11.3770
    -9.6871  -8.8294  -7.9748  -7.7274  -6.6580  -6.4707  -6.1410  -6.0314

          k = 0.2575-0.1328 0.0000 ( 18109 PWs)   bands (ev):

   -24.5329 -24.1334 -23.6174 -23.2808 -12.2837 -12.1733 -11.6631 -11.5901
    -9.9303  -8.8868  -7.7387  -7.3525  -6.5590  -6.4765  -6.2303  -6.1358

          k = 0.2421 0.1535 0.0000 ( 18132 PWs)   bands (ev):

   -24.5290 -24.1385 -23.6236 -23.2756 -12.0973 -12.0201 -11.9238 -11.7370
    -9.8339  -8.7847  -7.9172  -7.4124  -6.4343  -6.3490  -6.2626  -6.2381

          k = 0.2882-0.7053 0.0000 ( 18147 PWs)   bands (ev):

   -24.2950 -23.9395 -23.8728 -23.5273 -12.2546 -12.2142 -11.6655 -11.4828
    -9.5019  -8.5885  -8.2683  -7.8453  -6.5707  -6.4122  -6.1389  -6.0585

          k = 0.2728-0.4190 0.0000 ( 18128 PWs)   bands (ev):

   -24.3055 -23.9126 -23.8767 -23.5376 -12.3578 -12.2834 -11.5073 -11.3986
    -9.6316  -8.7680  -8.0053  -7.7968  -6.6133  -6.4925  -6.1114  -6.0443

          k =-0.5150 0.2656 0.0000 ( 18184 PWs)   bands (ev):

   -24.3044 -23.9141 -23.8739 -23.5383 -12.3818 -12.2729 -11.5036 -11.4303
    -9.6245  -8.7795  -7.9889  -7.7349  -6.6164  -6.4844  -6.1473  -6.0433

          k =-0.5303 0.5518 0.0000 ( 18128 PWs)   bands (ev):

   -24.2940 -23.9425 -23.8680 -23.5281 -12.2922 -12.2238 -11.6329 -11.5091
    -9.4652  -8.5635  -8.2803  -7.8566  -6.5451  -6.4189  -6.1441  -6.0656

          k =-0.4843-0.3070 0.0000 ( 18166 PWs)   bands (ev):

   -24.2810 -23.9733 -23.8607 -23.5199 -12.1392 -11.9849 -11.9728 -11.6286
    -9.2889  -8.6294  -8.1882  -8.0508  -6.4283  -6.2874  -6.2177  -6.1807

     highest occupied level (ev):    -6.0314

!    total energy              =    -176.31958432 Ry

     total all-electron energy =      -611.707129 Ry
     estimated scf accuracy    <          6.8E-13 Ry

     The total energy is the sum of the following terms:
     one-electron contribution =    -669.23570359 Ry
     hartree contribution      =     342.62239990 Ry
     xc contribution           =     -35.62721645 Ry
     ewald contribution        =     224.27156967 Ry
     one-center paw contrib.   =     -38.35063385 Ry

     convergence has been achieved in   8 iterations

     negative rho (up, down):  4.950E-04 0.000E+00

     Forces acting on atoms (cartesian axes, Ry/au):

     atom    1 type  1   force =     0.00088376    0.00078926   -0.00020137
     atom    2 type  1   force =     0.00056545   -0.00072632   -0.00097963
     atom    3 type  1   force =     0.00181142   -0.00080866   -0.00024859
     atom    4 type  1   force =    -0.00113839   -0.00119429    0.00049506
     atom    5 type  1   force =    -0.00061897   -0.00190629   -0.00008545
     atom    6 type  1   force =    -0.00048815    0.00135645    0.00135106
     atom    7 type  1   force =     0.00098057    0.00061077    0.00003233
     atom    8 type  1   force =     0.00051885    0.00021714   -0.00093374
     atom    9 type  2   force =     0.00172146    0.00196206    0.00067485
     atom   10 type  2   force =    -0.00124687   -0.00049584    0.00072339
     atom   11 type  2   force =    -0.00114420   -0.00099374   -0.00166563
     atom   12 type  2   force =    -0.00184493    0.00118945    0.00083771

     Total force =     0.006392     Total SCF correction =     0.000001
     Energy error            =      8.8E-05 Ry
     Gradient error          =      2.0E-03 Ry/Bohr

     number of scf cycles    =  27
     number of bfgs steps    =  25

     energy             old  =    -176.3194963957 Ry
     energy             new  =    -176.3195843158 Ry

     CASE: energy            _new < energy            _old

     new trust radius        =       0.0090079663 bohr
     new conv_thr            =            1.0E-12 Ry


ATOMIC_POSITIONS (angstrom)
H             4.4108324141        3.6245050051       11.2030935490
H             5.2870839801        4.2543046357       10.0397375381
H             3.3440170394        1.2598918061        8.1101546094
H             3.1848451449        2.9242182487        9.2991189015
H             4.0542917539        3.5464661538        8.1322292167
H             6.3818150793        4.0818813662        8.1018654902
H             2.9522653173        1.7103217995       11.2317027557
H             2.0868826214        3.0802672306       11.2392488643
O             5.2298394847        4.1716966858       11.0329848405
O             3.2345203878        2.9995319152        8.3040675919
O             5.4821602868        4.4730706573        8.2932003570
O             2.9868329411        2.6919512542       11.0522823634



     Writing config-only to output data dir ./output/f-BH.save/
     NEW-OLD atomic charge density approx. for the potential

     negative rho (up, down):  4.950E-04 0.000E+00

     total cpu time spent up to now is     2194.1 secs

     per-process dynamical memory:   210.7 Mb

     Self-consistent Calculation

     iteration #  1     ecut=    60.00 Ry     beta= 0.70
     Davidson diagonalization with overlap
     ethr =  1.00E-06,  avg # of iterations =  3.0

     Threshold (ethr) on eigenvalues was too large:
     Diagonalizing with lowered threshold

     Davidson diagonalization with overlap
     ethr =  7.19E-08,  avg # of iterations =  2.0

     negative rho (up, down):  4.947E-04 0.000E+00

     total cpu time spent up to now is     2205.4 secs

     total energy              =    -176.31964786 Ry
     estimated scf accuracy    <       0.00002691 Ry

     iteration #  2     ecut=    60.00 Ry     beta= 0.70
     Davidson diagonalization with overlap
     ethr =  8.41E-08,  avg # of iterations =  2.0

     negative rho (up, down):  4.946E-04 0.000E+00

     total cpu time spent up to now is     2210.6 secs

     total energy              =    -176.31965103 Ry
     estimated scf accuracy    <       0.00000198 Ry

     iteration #  3     ecut=    60.00 Ry     beta= 0.70
     Davidson diagonalization with overlap
     ethr =  6.20E-09,  avg # of iterations =  2.8

     negative rho (up, down):  4.946E-04 0.000E+00

     total cpu time spent up to now is     2216.5 secs

     total energy              =    -176.31965140 Ry
     estimated scf accuracy    <       0.00000061 Ry

     iteration #  4     ecut=    60.00 Ry     beta= 0.70
     Davidson diagonalization with overlap
     ethr =  1.92E-09,  avg # of iterations =  2.6

     negative rho (up, down):  4.945E-04 0.000E+00

     total cpu time spent up to now is     2221.7 secs

     total energy              =    -176.31965152 Ry
     estimated scf accuracy    <       0.00000002 Ry

     iteration #  5     ecut=    60.00 Ry     beta= 0.70
     Davidson diagonalization with overlap
     ethr =  6.55E-11,  avg # of iterations =  2.9

     negative rho (up, down):  4.945E-04 0.000E+00

     total cpu time spent up to now is     2227.5 secs

     total energy              =    -176.31965152 Ry
     estimated scf accuracy    <          6.1E-09 Ry

     iteration #  6     ecut=    60.00 Ry     beta= 0.70
     Davidson diagonalization with overlap
     ethr =  1.92E-11,  avg # of iterations =  2.5

     negative rho (up, down):  4.945E-04 0.000E+00

     total cpu time spent up to now is     2233.1 secs

     total energy              =    -176.31965152 Ry
     estimated scf accuracy    <          1.3E-10 Ry

     iteration #  7     ecut=    60.00 Ry     beta= 0.70
     Davidson diagonalization with overlap
     ethr =  4.14E-13,  avg # of iterations =  4.2

     negative rho (up, down):  4.945E-04 0.000E+00

     total cpu time spent up to now is     2240.1 secs

     total energy              =    -176.31965152 Ry
     estimated scf accuracy    <          1.7E-10 Ry

     iteration #  8     ecut=    60.00 Ry     beta= 0.70
     Davidson diagonalization with overlap
     ethr =  4.14E-13,  avg # of iterations =  2.1

     negative rho (up, down):  4.945E-04 0.000E+00

     total cpu time spent up to now is     2245.5 secs

     total energy              =    -176.31965152 Ry
     estimated scf accuracy    <          7.4E-12 Ry

     iteration #  9     ecut=    60.00 Ry     beta= 0.70
     Davidson diagonalization with overlap
     ethr =  1.00E-13,  avg # of iterations =  3.0

     negative rho (up, down):  4.945E-04 0.000E+00

     total cpu time spent up to now is     2251.2 secs

     total energy              =    -176.31965152 Ry
     estimated scf accuracy    <          6.3E-12 Ry

     iteration # 10     ecut=    60.00 Ry     beta= 0.70
     Davidson diagonalization with overlap
     ethr =  1.00E-13,  avg # of iterations =  1.0

     negative rho (up, down):  4.945E-04 0.000E+00

     total cpu time spent up to now is     2255.5 secs

     total energy              =    -176.31965152 Ry
     estimated scf accuracy    <          1.9E-12 Ry

     iteration # 11     ecut=    60.00 Ry     beta= 0.70
     Davidson diagonalization with overlap
     ethr =  1.00E-13,  avg # of iterations =  1.0

     negative rho (up, down):  4.945E-04 0.000E+00

     total cpu time spent up to now is     2259.7 secs

     End of self-consistent calculation

          k = 0.0000 0.0000 0.0000 ( 18047 PWs)   bands (ev):

   -24.6749 -24.2704 -23.4461 -23.1176 -12.0592 -12.0360 -11.9131 -11.8490
   -10.1620  -8.9673  -7.5366  -7.0325  -6.4828  -6.4109  -6.3402  -6.2289

          k =-0.0153 0.2863 0.0000 ( 18132 PWs)   bands (ev):

   -24.5374 -24.1379 -23.6203 -23.2826 -12.2440 -12.1696 -11.7180 -11.5588
    -9.9579  -8.9072  -7.7364  -7.3634  -6.5851  -6.4693  -6.2359  -6.1198

          k = 0.0307-0.5725 0.0000 ( 18166 PWs)   bands (ev):

   -24.3101 -23.9232 -23.8743 -23.5386 -12.3071 -12.2825 -11.5493 -11.3864
    -9.6787  -8.8269  -7.9824  -7.7427  -6.6575  -6.4703  -6.1429  -6.0338

          k = 0.2575-0.1328 0.0000 ( 18109 PWs)   bands (ev):

   -24.5367 -24.1373 -23.6194 -23.2829 -12.2868 -12.1798 -11.6656 -11.6001
    -9.9275  -8.8930  -7.7410  -7.3591  -6.5586  -6.4813  -6.2331  -6.1362

          k = 0.2421 0.1535 0.0000 ( 18132 PWs)   bands (ev):

   -24.5333 -24.1435 -23.6242 -23.2770 -12.1013 -12.0244 -11.9327 -11.7439
    -9.8322  -8.7926  -7.9154  -7.4147  -6.4307  -6.3569  -6.2651  -6.2434

          k = 0.2882-0.7053 0.0000 ( 18147 PWs)   bands (ev):

   -24.3000 -23.9550 -23.8630 -23.5280 -12.2512 -12.2293 -11.6712 -11.4912
    -9.4956  -8.5888  -8.2738  -7.8546  -6.5692  -6.4128  -6.1426  -6.0634

          k = 0.2728-0.4190 0.0000 ( 18128 PWs)   bands (ev):

   -24.3094 -23.9258 -23.8696 -23.5395 -12.3596 -12.2916 -11.5118 -11.4078
    -9.6243  -8.7680  -8.0131  -7.8097  -6.6118  -6.4935  -6.1138  -6.0466

          k =-0.5150 0.2656 0.0000 ( 18184 PWs)   bands (ev):

   -24.3078 -23.9280 -23.8658 -23.5409 -12.3847 -12.2795 -11.5062 -11.4399
    -9.6186  -8.7832  -7.9964  -7.7450  -6.6143  -6.4870  -6.1492  -6.0454

          k =-0.5303 0.5518 0.0000 ( 18128 PWs)   bands (ev):

   -24.2985 -23.9580 -23.8583 -23.5293 -12.2952 -12.2313 -11.6385 -11.5168
    -9.4604  -8.5681  -8.2849  -7.8625  -6.5425  -6.4214  -6.1479  -6.0701

          k =-0.4843-0.3070 0.0000 ( 18166 PWs)   bands (ev):

   -24.2866 -23.9890 -23.8505 -23.5200 -12.1435 -11.9909 -11.9810 -11.6357
    -9.2855  -8.6426  -8.1784  -8.0560  -6.4233  -6.2856  -6.2240  -6.1936

     highest occupied level (ev):    -6.0338

!    total energy              =    -176.31965152 Ry

     total all-electron energy =      -611.707196 Ry
     estimated scf accuracy    <          1.5E-14 Ry

     The total energy is the sum of the following terms:
     one-electron contribution =    -669.26175222 Ry
     hartree contribution      =     342.63171877 Ry
     xc contribution           =     -35.62760080 Ry
     ewald contribution        =     224.28858508 Ry
     one-center paw contrib.   =     -38.35060235 Ry

     convergence has been achieved in  11 iterations

     negative rho (up, down):  4.945E-04 0.000E+00

     Forces acting on atoms (cartesian axes, Ry/au):

     atom    1 type  1   force =     0.00004483    0.00061998    0.00014058
     atom    2 type  1   force =     0.00050983   -0.00003008   -0.00217346
     atom    3 type  1   force =     0.00192290   -0.00242110   -0.00020161
     atom    4 type  1   force =    -0.00153299   -0.00130984    0.00084168
     atom    5 type  1   force =    -0.00035804   -0.00120585   -0.00071390
     atom    6 type  1   force =    -0.00091651    0.00236223    0.00090305
     atom    7 type  1   force =     0.00008112    0.00156301    0.00000336
     atom    8 type  1   force =    -0.00029656   -0.00009642   -0.00063376
     atom    9 type  2   force =     0.00215296    0.00162616    0.00144699
     atom   10 type  2   force =    -0.00086380   -0.00083171    0.00102626
     atom   11 type  2   force =    -0.00099627   -0.00072974   -0.00123670
     atom   12 type  2   force =     0.00025253    0.00045337    0.00059752

     Total force =     0.006898     Total SCF correction =     0.000000
     Energy error            =      6.7E-05 Ry
     Gradient error          =      2.4E-03 Ry/Bohr

     number of scf cycles    =  28
     number of bfgs steps    =  26

     energy             old  =    -176.3195843158 Ry
     energy             new  =    -176.3196515230 Ry

     CASE: energy            _new < energy            _old

     new trust radius        =       0.0099087630 bohr
     new conv_thr            =            1.0E-12 Ry


ATOMIC_POSITIONS (angstrom)
H             4.4143493790        3.6271969709       11.2024047352
H             5.2894817375        4.2520983255       10.0375915659
H             3.3466352896        1.2597695983        8.1103040433
H             3.1828288526        2.9230532279        9.3014756735
H             4.0515262799        3.5421060567        8.1331434980
H             6.3803288838        4.0784282817        8.1040446602
H             2.9541733445        1.7121173632       11.2305474564
H             2.0870622235        3.0837158042       11.2400267918
O             5.2317403075        4.1759916532       11.0313150701
O             3.2309369152        2.9975107768        8.3062720177
O             5.4804879444        4.4717480208        8.2897787064
O             2.9858352932        2.6943706789       11.0527818594



     Writing config-only to output data dir ./output/f-BH.save/
     NEW-OLD atomic charge density approx. for the potential

     negative rho (up, down):  4.941E-04 0.000E+00

     total cpu time spent up to now is     2272.4 secs

     per-process dynamical memory:   210.2 Mb

     Self-consistent Calculation

     iteration #  1     ecut=    60.00 Ry     beta= 0.70
     Davidson diagonalization with overlap
     ethr =  1.00E-06,  avg # of iterations =  3.1

     Threshold (ethr) on eigenvalues was too large:
     Diagonalizing with lowered threshold

     Davidson diagonalization with overlap
     ethr =  9.94E-08,  avg # of iterations =  2.0

     negative rho (up, down):  4.938E-04 0.000E+00

     total cpu time spent up to now is     2284.0 secs

     total energy              =    -176.31971730 Ry
     estimated scf accuracy    <       0.00003818 Ry

     iteration #  2     ecut=    60.00 Ry     beta= 0.70
     Davidson diagonalization with overlap
     ethr =  1.19E-07,  avg # of iterations =  2.0

     negative rho (up, down):  4.937E-04 0.000E+00

     total cpu time spent up to now is     2289.3 secs

     total energy              =    -176.31972163 Ry
     estimated scf accuracy    <       0.00000258 Ry

     iteration #  3     ecut=    60.00 Ry     beta= 0.70
     Davidson diagonalization with overlap
     ethr =  8.06E-09,  avg # of iterations =  2.8

     negative rho (up, down):  4.937E-04 0.000E+00

     total cpu time spent up to now is     2295.3 secs

     total energy              =    -176.31972211 Ry
     estimated scf accuracy    <       0.00000085 Ry

     iteration #  4     ecut=    60.00 Ry     beta= 0.70
     Davidson diagonalization with overlap
     ethr =  2.66E-09,  avg # of iterations =  2.8

     negative rho (up, down):  4.937E-04 0.000E+00

     total cpu time spent up to now is     2300.8 secs

     total energy              =    -176.31972228 Ry
     estimated scf accuracy    <       0.00000003 Ry

     iteration #  5     ecut=    60.00 Ry     beta= 0.70
     Davidson diagonalization with overlap
     ethr =  1.03E-10,  avg # of iterations =  2.6

     negative rho (up, down):  4.937E-04 0.000E+00

     total cpu time spent up to now is     2306.5 secs

     total energy              =    -176.31972229 Ry
     estimated scf accuracy    <          8.0E-09 Ry

     iteration #  6     ecut=    60.00 Ry     beta= 0.70
     Davidson diagonalization with overlap
     ethr =  2.49E-11,  avg # of iterations =  2.7

     negative rho (up, down):  4.937E-04 0.000E+00

     total cpu time spent up to now is     2312.1 secs

     total energy              =    -176.31972229 Ry
     estimated scf accuracy    <          1.7E-10 Ry

     iteration #  7     ecut=    60.00 Ry     beta= 0.70
     Davidson diagonalization with overlap
     ethr =  5.25E-13,  avg # of iterations =  4.2

     negative rho (up, down):  4.937E-04 0.000E+00

     total cpu time spent up to now is     2319.5 secs

     total energy              =    -176.31972229 Ry
     estimated scf accuracy    <          2.3E-10 Ry

     iteration #  8     ecut=    60.00 Ry     beta= 0.70
     Davidson diagonalization with overlap
     ethr =  5.25E-13,  avg # of iterations =  2.0

     negative rho (up, down):  4.937E-04 0.000E+00

     total cpu time spent up to now is     2325.0 secs

     total energy              =    -176.31972229 Ry
     estimated scf accuracy    <          1.3E-11 Ry

     iteration #  9     ecut=    60.00 Ry     beta= 0.70
     Davidson diagonalization with overlap
     ethr =  1.00E-13,  avg # of iterations =  3.0

     negative rho (up, down):  4.937E-04 0.000E+00

     total cpu time spent up to now is     2331.2 secs

     total energy              =    -176.31972229 Ry
     estimated scf accuracy    <          7.1E-12 Ry

     iteration # 10     ecut=    60.00 Ry     beta= 0.70
     Davidson diagonalization with overlap
     ethr =  1.00E-13,  avg # of iterations =  1.0

     negative rho (up, down):  4.937E-04 0.000E+00

     total cpu time spent up to now is     2335.4 secs

     total energy              =    -176.31972229 Ry
     estimated scf accuracy    <          1.5E-12 Ry

     iteration # 11     ecut=    60.00 Ry     beta= 0.70
     Davidson diagonalization with overlap
     ethr =  1.00E-13,  avg # of iterations =  1.0

     negative rho (up, down):  4.937E-04 0.000E+00

     total cpu time spent up to now is     2339.6 secs

     End of self-consistent calculation

          k = 0.0000 0.0000 0.0000 ( 18047 PWs)   bands (ev):

   -24.6788 -24.2733 -23.4493 -23.1193 -12.0628 -12.0339 -11.9177 -11.8565
   -10.1610  -8.9736  -7.5384  -7.0373  -6.4885  -6.4097  -6.3467  -6.2263

          k =-0.0153 0.2863 0.0000 ( 18132 PWs)   bands (ev):

   -24.5415 -24.1411 -23.6231 -23.2842 -12.2445 -12.1734 -11.7222 -11.5659
    -9.9550  -8.9109  -7.7401  -7.3708  -6.5870  -6.4700  -6.2377  -6.1210

          k = 0.0307-0.5725 0.0000 ( 18166 PWs)   bands (ev):

   -24.3144 -23.9332 -23.8703 -23.5400 -12.3033 -12.2903 -11.5549 -11.3944
    -9.6728  -8.8257  -7.9889  -7.7547  -6.6574  -6.4693  -6.1449  -6.0365

          k = 0.2575-0.1328 0.0000 ( 18109 PWs)   bands (ev):

   -24.5404 -24.1403 -23.6226 -23.2849 -12.2877 -12.1826 -11.6687 -11.6066
    -9.9254  -8.8990  -7.7444  -7.3654  -6.5584  -6.4851  -6.2363  -6.1360

          k = 0.2421 0.1535 0.0000 ( 18132 PWs)   bands (ev):

   -24.5378 -24.1477 -23.6260 -23.2779 -12.1046 -12.0263 -11.9383 -11.7487
    -9.8310  -8.7993  -7.9161  -7.4183  -6.4285  -6.3626  -6.2692  -6.2447

          k = 0.2882-0.7053 0.0000 ( 18147 PWs)   bands (ev):

   -24.3053 -23.9659 -23.8579 -23.5281 -12.2479 -12.2383 -11.6763 -11.4980
    -9.4913  -8.5898  -8.2788  -7.8627  -6.5681  -6.4126  -6.1457  -6.0677

          k = 0.2728-0.4190 0.0000 ( 18128 PWs)   bands (ev):

   -24.3129 -23.9358 -23.8657 -23.5416 -12.3599 -12.2948 -11.5167 -11.4148
    -9.6190  -8.7696  -8.0191  -7.8204  -6.6112  -6.4934  -6.1167  -6.0489

          k =-0.5150 0.2656 0.0000 ( 18184 PWs)   bands (ev):

   -24.3107 -23.9382 -23.8618 -23.5439 -12.3852 -12.2822 -11.5097 -11.4461
    -9.6141  -8.7883  -8.0026  -7.7537  -6.6127  -6.4888  -6.1519  -6.0472

          k =-0.5303 0.5518 0.0000 ( 18128 PWs)   bands (ev):

   -24.3031 -23.9688 -23.8534 -23.5303 -12.2970 -12.2346 -11.6438 -11.5219
    -9.4569  -8.5730  -8.2894  -7.8680  -6.5404  -6.4233  -6.1516  -6.0734

          k =-0.4843-0.3070 0.0000 ( 18166 PWs)   bands (ev):

   -24.2931 -23.9996 -23.8452 -23.5190 -12.1470 -11.9970 -11.9841 -11.6408
    -9.2836  -8.6526  -8.1728  -8.0611  -6.4189  -6.2852  -6.2284  -6.2032

     highest occupied level (ev):    -6.0365

!    total energy              =    -176.31972229 Ry

     total all-electron energy =      -611.707267 Ry
     estimated scf accuracy    <          1.5E-14 Ry

     The total energy is the sum of the following terms:
     one-electron contribution =    -669.31375033 Ry
     hartree contribution      =     342.65480823 Ry
     xc contribution           =     -35.62821876 Ry
     ewald contribution        =     224.31803773 Ry
     one-center paw contrib.   =     -38.35059917 Ry

     convergence has been achieved in  11 iterations

     negative rho (up, down):  4.937E-04 0.000E+00

     Forces acting on atoms (cartesian axes, Ry/au):

     atom    1 type  1   force =    -0.00040182    0.00068659    0.00045305
     atom    2 type  1   force =     0.00044783    0.00063855   -0.00244943
     atom    3 type  1   force =     0.00141132   -0.00332980   -0.00011170
     atom    4 type  1   force =    -0.00168094   -0.00134060    0.00111797
     atom    5 type  1   force =    -0.00021115   -0.00058892   -0.00096974
     atom    6 type  1   force =    -0.00076326    0.00248932    0.00043661
     atom    7 type  1   force =    -0.00064020    0.00194707    0.00004829
     atom    8 type  1   force =    -0.00102825   -0.00031474   -0.00035719
     atom    9 type  2   force =     0.00209261    0.00100698    0.00137030
     atom   10 type  2   force =    -0.00048634   -0.00120146    0.00097895
     atom   11 type  2   force =    -0.00088785   -0.00024999   -0.00082311
     atom   12 type  2   force =     0.00214808    0.00025699    0.00030600

     Total force =     0.007511     Total SCF correction =     0.000000
     Energy error            =      7.1E-05 Ry
     Gradient error          =      3.3E-03 Ry/Bohr

     number of scf cycles    =  29
     number of bfgs steps    =  27

     energy             old  =    -176.3196515230 Ry
     energy             new  =    -176.3197222890 Ry

     CASE: energy            _new < energy            _old

     new trust radius        =       0.0148631444 bohr
     new conv_thr            =            1.0E-12 Ry


ATOMIC_POSITIONS (angstrom)
H             4.4195806956        3.6311908913       11.2015090768
H             5.2932779033        4.2495007757       10.0335800007
H             3.3513006916        1.2579117778        8.1108489570
H             3.1791661638        2.9216201717        9.3059973616
H             4.0467571059        3.5358618233        8.1334991486
H             6.3777934740        4.0738158704        8.1064520012
H             2.9555556579        1.7155688078       11.2288250548
H             2.0880283896        3.0890226303       11.2413243780
O             5.2350257419        4.1820297970       11.0284069687
O             3.2256752387        2.9939631879        8.3102715920
O             5.4775965236        4.4689878618        8.2851584807
O             2.9856288647        2.6986331631       11.0538130577



     Writing config-only to output data dir ./output/f-BH.save/
     NEW-OLD atomic charge density approx. for the potential

     negative rho (up, down):  4.926E-04 0.000E+00

     total cpu time spent up to now is     2352.2 secs

     per-process dynamical memory:   210.7 Mb

     Self-consistent Calculation

     iteration #  1     ecut=    60.00 Ry     beta= 0.70
     Davidson diagonalization with overlap
     ethr =  1.00E-06,  avg # of iterations =  4.0

     negative rho (up, down):  4.923E-04 0.000E+00

     total cpu time spent up to now is     2360.6 secs

     total energy              =    -176.31980337 Ry
     estimated scf accuracy    <       0.00008262 Ry

     iteration #  2     ecut=    60.00 Ry     beta= 0.70
     Davidson diagonalization with overlap
     ethr =  2.58E-07,  avg # of iterations =  2.0

     negative rho (up, down):  4.922E-04 0.000E+00

     total cpu time spent up to now is     2365.8 secs

     total energy              =    -176.31981274 Ry
     estimated scf accuracy    <       0.00000520 Ry

     iteration #  3     ecut=    60.00 Ry     beta= 0.70
     Davidson diagonalization with overlap
     ethr =  1.63E-08,  avg # of iterations =  2.8

     negative rho (up, down):  4.922E-04 0.000E+00

     total cpu time spent up to now is     2371.6 secs

     total energy              =    -176.31981372 Ry
     estimated scf accuracy    <       0.00000133 Ry

     iteration #  4     ecut=    60.00 Ry     beta= 0.70
     Davidson diagonalization with overlap
     ethr =  4.17E-09,  avg # of iterations =  2.6

     negative rho (up, down):  4.922E-04 0.000E+00

     total cpu time spent up to now is     2377.1 secs

     total energy              =    -176.31981402 Ry
     estimated scf accuracy    <       0.00000009 Ry

     iteration #  5     ecut=    60.00 Ry     beta= 0.70
     Davidson diagonalization with overlap
     ethr =  2.90E-10,  avg # of iterations =  2.0

     negative rho (up, down):  4.922E-04 0.000E+00

     total cpu time spent up to now is     2382.6 secs

     total energy              =    -176.31981403 Ry
     estimated scf accuracy    <       0.00000002 Ry

     iteration #  6     ecut=    60.00 Ry     beta= 0.70
     Davidson diagonalization with overlap
     ethr =  4.74E-11,  avg # of iterations =  2.2

     negative rho (up, down):  4.922E-04 0.000E+00

     total cpu time spent up to now is     2388.0 secs

     total energy              =    -176.31981403 Ry
     estimated scf accuracy    <          6.4E-10 Ry

     iteration #  7     ecut=    60.00 Ry     beta= 0.70
     Davidson diagonalization with overlap
     ethr =  2.01E-12,  avg # of iterations =  4.1

     negative rho (up, down):  4.922E-04 0.000E+00

     total cpu time spent up to now is     2394.9 secs

     total energy              =    -176.31981403 Ry
     estimated scf accuracy    <          5.1E-10 Ry

     iteration #  8     ecut=    60.00 Ry     beta= 0.70
     Davidson diagonalization with overlap
     ethr =  1.58E-12,  avg # of iterations =  2.0

     negative rho (up, down):  4.922E-04 0.000E+00

     total cpu time spent up to now is     2399.9 secs

     total energy              =    -176.31981403 Ry
     estimated scf accuracy    <          3.0E-11 Ry

     iteration #  9     ecut=    60.00 Ry     beta= 0.70
     Davidson diagonalization with overlap
     ethr =  1.00E-13,  avg # of iterations =  3.4

     negative rho (up, down):  4.922E-04 0.000E+00

     total cpu time spent up to now is     2406.6 secs

     total energy              =    -176.31981403 Ry
     estimated scf accuracy    <          1.1E-11 Ry

     iteration # 10     ecut=    60.00 Ry     beta= 0.70
     Davidson diagonalization with overlap
     ethr =  1.00E-13,  avg # of iterations =  1.0

     negative rho (up, down):  4.922E-04 0.000E+00

     total cpu time spent up to now is     2410.9 secs

     total energy              =    -176.31981403 Ry
     estimated scf accuracy    <          2.8E-12 Ry

     iteration # 11     ecut=    60.00 Ry     beta= 0.70
     Davidson diagonalization with overlap
     ethr =  1.00E-13,  avg # of iterations =  1.0

     negative rho (up, down):  4.922E-04 0.000E+00

     total cpu time spent up to now is     2415.0 secs

     End of self-consistent calculation

          k = 0.0000 0.0000 0.0000 ( 18047 PWs)   bands (ev):

   -24.6826 -24.2745 -23.4536 -23.1202 -12.0655 -12.0275 -11.9224 -11.8601
   -10.1602  -8.9798  -7.5430  -7.0438  -6.4932  -6.4098  -6.3516  -6.2227

          k =-0.0153 0.2863 0.0000 ( 18132 PWs)   bands (ev):

   -24.5453 -24.1425 -23.6270 -23.2850 -12.2427 -12.1717 -11.7261 -11.5730
    -9.9526  -8.9152  -7.7450  -7.3781  -6.5893  -6.4690  -6.2394  -6.1227

          k = 0.0307-0.5725 0.0000 ( 18166 PWs)   bands (ev):

   -24.3185 -23.9396 -23.8692 -23.5405 -12.3045 -12.2845 -11.5615 -11.4035
    -9.6684  -8.8259  -7.9951  -7.7642  -6.6572  -6.4666  -6.1468  -6.0403

          k = 0.2575-0.1328 0.0000 ( 18109 PWs)   bands (ev):

   -24.5437 -24.1414 -23.6271 -23.2863 -12.2858 -12.1820 -11.6711 -11.6113
    -9.9234  -8.9060  -7.7488  -7.3717  -6.5580  -6.4886  -6.2404  -6.1353

          k = 0.2421 0.1535 0.0000 ( 18132 PWs)   bands (ev):

   -24.5423 -24.1500 -23.6288 -23.2779 -12.1070 -12.0265 -11.9395 -11.7528
    -9.8298  -8.8054  -7.9192  -7.4232  -6.4275  -6.3664  -6.2733  -6.2442

          k = 0.2882-0.7053 0.0000 ( 18147 PWs)   bands (ev):

   -24.3109 -23.9727 -23.8561 -23.5271 -12.2514 -12.2336 -11.6812 -11.5052
    -9.4879  -8.5914  -8.2840  -7.8705  -6.5668  -6.4110  -6.1481  -6.0726

          k = 0.2728-0.4190 0.0000 ( 18128 PWs)   bands (ev):

   -24.3159 -23.9422 -23.8649 -23.5434 -12.3578 -12.2928 -11.5218 -11.4217
    -9.6145  -8.7739  -8.0233  -7.8298  -6.6108  -6.4917  -6.1203  -6.0520

          k =-0.5150 0.2656 0.0000 ( 18184 PWs)   bands (ev):

   -24.3124 -23.9447 -23.8610 -23.5470 -12.3826 -12.2812 -11.5132 -11.4507
    -9.6099  -8.7965  -8.0069  -7.7614  -6.6111  -6.4899  -6.1560  -6.0494

          k =-0.5303 0.5518 0.0000 ( 18128 PWs)   bands (ev):

   -24.3075 -23.9755 -23.8521 -23.5305 -12.2972 -12.2336 -11.6485 -11.5260
    -9.4537  -8.5789  -8.2944  -7.8730  -6.5378  -6.4248  -6.1557  -6.0766

          k =-0.4843-0.3070 0.0000 ( 18166 PWs)   bands (ev):

   -24.3004 -24.0059 -23.8433 -23.5165 -12.1494 -12.0029 -11.9819 -11.6455
    -9.2822  -8.6597  -8.1718  -8.0660  -6.4139  -6.2869  -6.2310  -6.2108

     highest occupied level (ev):    -6.0403

!    total energy              =    -176.31981403 Ry

     total all-electron energy =      -611.707359 Ry
     estimated scf accuracy    <          5.6E-14 Ry

     The total energy is the sum of the following terms:
     one-electron contribution =    -669.44336961 Ry
     hartree contribution      =     342.71734506 Ry
     xc contribution           =     -35.62879552 Ry
     ewald contribution        =     224.38563012 Ry
     one-center paw contrib.   =     -38.35062408 Ry

     convergence has been achieved in  11 iterations

     negative rho (up, down):  4.922E-04 0.000E+00

     Forces acting on atoms (cartesian axes, Ry/au):

     atom    1 type  1   force =    -0.00062291    0.00096246    0.00067147
     atom    2 type  1   force =     0.00023402    0.00138441   -0.00207447
     atom    3 type  1   force =     0.00023183   -0.00349439   -0.00005734
     atom    4 type  1   force =    -0.00155132   -0.00126121    0.00107740
     atom    5 type  1   force =    -0.00025013   -0.00000359   -0.00085332
     atom    6 type  1   force =    -0.00040652    0.00205448   -0.00007140
     atom    7 type  1   force =    -0.00110861    0.00227858    0.00006311
     atom    8 type  1   force =    -0.00177076   -0.00033760   -0.00012341
     atom    9 type  2   force =     0.00176646    0.00016488    0.00079808
     atom   10 type  2   force =     0.00001340   -0.00156695    0.00078805
     atom   11 type  2   force =    -0.00041065   -0.00002129   -0.00033383
     atom   12 type  2   force =     0.00387519   -0.00015978    0.00011564

     Total force =     0.007908     Total SCF correction =     0.000000
     Energy error            =      9.2E-05 Ry
     Gradient error          =      3.9E-03 Ry/Bohr

     number of scf cycles    =  30
     number of bfgs steps    =  28

     energy             old  =    -176.3197222890 Ry
     energy             new  =    -176.3198140294 Ry

     CASE: energy            _new < energy            _old

     new trust radius        =       0.0222947167 bohr
     new conv_thr            =            1.0E-12 Ry


ATOMIC_POSITIONS (angstrom)
H             4.4267518549        3.6374540234       11.2002955930
H             5.2991320932        4.2467750716       10.0268212674
H             3.3580846285        1.2533827844        8.1118296583
H             3.1729803930        2.9189924166        9.3136248216
H             4.0390325698        3.5269458142        8.1336595470
H             6.3735615328        4.0676741246        8.1094457281
H             2.9566395578        1.7222935836       11.2257899377
H             2.0901340999        3.0969008500       11.2432715792
O             5.2402891124        4.1902674768       11.0235824373
O             3.2184176297        2.9876128686        8.3170373466
O             5.4729565001        4.4638834974        8.2786238693
O             2.9874064789        2.7059242469       11.0557042923



     Writing config-only to output data dir ./output/f-BH.save/
     NEW-OLD atomic charge density approx. for the potential

     negative rho (up, down):  4.903E-04 0.000E+00

     total cpu time spent up to now is     2427.7 secs

     per-process dynamical memory:   210.2 Mb

     Self-consistent Calculation

     iteration #  1     ecut=    60.00 Ry     beta= 0.70
     Davidson diagonalization with overlap
     ethr =  1.00E-06,  avg # of iterations =  5.0

     negative rho (up, down):  4.901E-04 0.000E+00

     total cpu time spent up to now is     2437.1 secs

     total energy              =    -176.31989277 Ry
     estimated scf accuracy    <       0.00020520 Ry

     iteration #  2     ecut=    60.00 Ry     beta= 0.70
     Davidson diagonalization with overlap
     ethr =  6.41E-07,  avg # of iterations =  2.0

     negative rho (up, down):  4.900E-04 0.000E+00

     total cpu time spent up to now is     2442.1 secs

     total energy              =    -176.31991387 Ry
     estimated scf accuracy    <       0.00000986 Ry

     iteration #  3     ecut=    60.00 Ry     beta= 0.70
     Davidson diagonalization with overlap
     ethr =  3.08E-08,  avg # of iterations =  2.2

     negative rho (up, down):  4.900E-04 0.000E+00

     total cpu time spent up to now is     2447.7 secs

     total energy              =    -176.31991569 Ry
     estimated scf accuracy    <       0.00000117 Ry

     iteration #  4     ecut=    60.00 Ry     beta= 0.70
     Davidson diagonalization with overlap
     ethr =  3.65E-09,  avg # of iterations =  2.7

     negative rho (up, down):  4.900E-04 0.000E+00

     total cpu time spent up to now is     2453.5 secs

     total energy              =    -176.31991598 Ry
     estimated scf accuracy    <       0.00000024 Ry

     iteration #  5     ecut=    60.00 Ry     beta= 0.70
     Davidson diagonalization with overlap
     ethr =  7.54E-10,  avg # of iterations =  2.0

     negative rho (up, down):  4.900E-04 0.000E+00

     total cpu time spent up to now is     2459.1 secs

     total energy              =    -176.31991602 Ry
     estimated scf accuracy    <       0.00000001 Ry

     iteration #  6     ecut=    60.00 Ry     beta= 0.70
     Davidson diagonalization with overlap
     ethr =  3.88E-11,  avg # of iterations =  2.8

     negative rho (up, down):  4.900E-04 0.000E+00

     total cpu time spent up to now is     2465.1 secs

     total energy              =    -176.31991602 Ry
     estimated scf accuracy    <          1.9E-09 Ry

     iteration #  7     ecut=    60.00 Ry     beta= 0.70
     Davidson diagonalization with overlap
     ethr =  6.04E-12,  avg # of iterations =  2.1

     negative rho (up, down):  4.900E-04 0.000E+00

     total cpu time spent up to now is     2470.6 secs

     total energy              =    -176.31991602 Ry
     estimated scf accuracy    <          3.6E-10 Ry

     iteration #  8     ecut=    60.00 Ry     beta= 0.70
     Davidson diagonalization with overlap
     ethr =  1.13E-12,  avg # of iterations =  2.0

     negative rho (up, down):  4.900E-04 0.000E+00

     total cpu time spent up to now is     2476.0 secs

     total energy              =    -176.31991602 Ry
     estimated scf accuracy    <          1.2E-11 Ry

     iteration #  9     ecut=    60.00 Ry     beta= 0.70
     Davidson diagonalization with overlap
     ethr =  1.00E-13,  avg # of iterations =  2.6

     negative rho (up, down):  4.900E-04 0.000E+00

     total cpu time spent up to now is     2481.7 secs

     total energy              =    -176.31991602 Ry
     estimated scf accuracy    <          5.9E-12 Ry

     iteration # 10     ecut=    60.00 Ry     beta= 0.70
     Davidson diagonalization with overlap
     ethr =  1.00E-13,  avg # of iterations =  1.0

     negative rho (up, down):  4.900E-04 0.000E+00

     total cpu time spent up to now is     2485.9 secs

     End of self-consistent calculation

          k = 0.0000 0.0000 0.0000 ( 18047 PWs)   bands (ev):

   -24.6871 -24.2741 -23.4610 -23.1215 -12.0673 -12.0180 -11.9285 -11.8597
   -10.1597  -8.9863  -7.5520  -7.0532  -6.4968  -6.4136  -6.3541  -6.2191

          k =-0.0153 0.2863 0.0000 ( 18132 PWs)   bands (ev):

   -24.5499 -24.1422 -23.6342 -23.2862 -12.2387 -12.1650 -11.7306 -11.5816
    -9.9513  -8.9210  -7.7515  -7.3852  -6.5924  -6.4661  -6.2421  -6.1263

          k = 0.0307-0.5725 0.0000 ( 18166 PWs)   bands (ev):

   -24.3232 -23.9398 -23.8754 -23.5419 -12.3060 -12.2694 -11.5702 -11.4154
    -9.6670  -8.8300  -8.0002  -7.7693  -6.6571  -6.4622  -6.1501  -6.0473

          k = 0.2575-0.1328 0.0000 ( 18109 PWs)   bands (ev):

   -24.5476 -24.1403 -23.6353 -23.2883 -12.2811 -12.1787 -11.6730 -11.6159
    -9.9221  -8.9148  -7.7543  -7.3783  -6.5583  -6.4915  -6.2467  -6.1354

          k = 0.2421 0.1535 0.0000 ( 18132 PWs)   bands (ev):

   -24.5477 -24.1502 -23.6350 -23.2782 -12.1091 -12.0264 -11.9356 -11.7571
    -9.8286  -8.8109  -7.9264  -7.4309  -6.4299  -6.3681  -6.2757  -6.2443

          k = 0.2882-0.7053 0.0000 ( 18147 PWs)   bands (ev):

   -24.3174 -23.9728 -23.8621 -23.5264 -12.2558 -12.2214 -11.6867 -11.5144
    -9.4863  -8.5949  -8.2893  -7.8775  -6.5659  -6.4081  -6.1507  -6.0796

          k = 0.2728-0.4190 0.0000 ( 18128 PWs)   bands (ev):

   -24.3189 -23.9424 -23.8714 -23.5464 -12.3531 -12.2857 -11.5280 -11.4305
    -9.6123  -8.7832  -8.0246  -7.8361  -6.6114  -6.4880  -6.1259  -6.0578

          k =-0.5150 0.2656 0.0000 ( 18184 PWs)   bands (ev):

   -24.3137 -23.9455 -23.8674 -23.5517 -12.3769 -12.2769 -11.5172 -11.4557
    -9.6074  -8.8102  -8.0075  -7.7673  -6.6102  -6.4898  -6.1632  -6.0535

          k =-0.5303 0.5518 0.0000 ( 18128 PWs)   bands (ev):

   -24.3123 -23.9758 -23.8586 -23.5311 -12.2961 -12.2288 -11.6532 -11.5304
    -9.4519  -8.5872  -8.2993  -7.8777  -6.5357  -6.4259  -6.1611  -6.0807

          k =-0.4843-0.3070 0.0000 ( 18166 PWs)   bands (ev):

   -24.3092 -24.0054 -23.8493 -23.5137 -12.1517 -12.0090 -11.9750 -11.6507
    -9.2820  -8.6611  -8.1810  -8.0701  -6.4095  -6.2935  -6.2327  -6.2139

     highest occupied level (ev):    -6.0473

!    total energy              =    -176.31991602 Ry

     total all-electron energy =      -611.707461 Ry
     estimated scf accuracy    <          7.1E-13 Ry

     The total energy is the sum of the following terms:
     one-electron contribution =    -669.69937823 Ry
     hartree contribution      =     342.84306429 Ry
     xc contribution           =     -35.62969762 Ry
     ewald contribution        =     224.51678318 Ry
     one-center paw contrib.   =     -38.35068765 Ry

     convergence has been achieved in  10 iterations

     negative rho (up, down):  4.900E-04 0.000E+00

     Forces acting on atoms (cartesian axes, Ry/au):

     atom    1 type  1   force =    -0.00040559    0.00150713    0.00064483
     atom    2 type  1   force =    -0.00028096    0.00213026   -0.00069956
     atom    3 type  1   force =    -0.00173182   -0.00279801   -0.00005099
     atom    4 type  1   force =    -0.00093153   -0.00095958    0.00077037
     atom    5 type  1   force =    -0.00037164    0.00052144   -0.00023608
     atom    6 type  1   force =     0.00069517    0.00062442   -0.00079645
     atom    7 type  1   force =    -0.00110280    0.00171514    0.00025439
     atom    8 type  1   force =    -0.00188050   -0.00023057   -0.00012093
     atom    9 type  2   force =     0.00117887   -0.00090799   -0.00046459
     atom   10 type  2   force =     0.00040249   -0.00195178    0.00021068
     atom   11 type  2   force =     0.00002445    0.00028905    0.00038852
     atom   12 type  2   force =     0.00440386    0.00006049    0.00009981

     Total force =     0.007554     Total SCF correction =     0.000001
     Energy error            =      1.0E-04 Ry
     Gradient error          =      4.4E-03 Ry/Bohr

     number of scf cycles    =  31
     number of bfgs steps    =  29

     energy             old  =    -176.3198140294 Ry
     energy             new  =    -176.3199160221 Ry

     CASE: energy            _new < energy            _old

     new trust radius        =       0.0138442829 bohr
     new conv_thr            =            1.0E-12 Ry


ATOMIC_POSITIONS (angstrom)
H             4.4303163980        3.6415698035       11.1998171215
H             5.3023853790        4.2466592659       10.0226036894
H             3.3609265236        1.2493648168        8.1124756960
H             3.1689445991        2.9169708889        9.3185518412
H             4.0341859014        3.5223100647        8.1336075100
H             6.3714342853        4.0645504663        8.1104460090
H             2.9564011242        1.7272458858       11.2239897869
H             2.0918517050        3.1011300887       11.2440564992
O             5.2437200082        4.1940012819       11.0203195564
O             3.2147819747        2.9828426799        8.3212443344
O             5.4701870886        4.4603705645        8.2753478674
O             2.9902514638        2.7110909511       11.0572261665



     Writing config-only to output data dir ./output/f-BH.save/
     NEW-OLD atomic charge density approx. for the potential

     negative rho (up, down):  4.890E-04 0.000E+00

     total cpu time spent up to now is     2498.6 secs

     per-process dynamical memory:   210.2 Mb

     Self-consistent Calculation

     iteration #  1     ecut=    60.00 Ry     beta= 0.70
     Davidson diagonalization with overlap
     ethr =  1.00E-06,  avg # of iterations =  4.0

     negative rho (up, down):  4.888E-04 0.000E+00

     total cpu time spent up to now is     2506.8 secs

     total energy              =    -176.31996777 Ry
     estimated scf accuracy    <       0.00007237 Ry

     iteration #  2     ecut=    60.00 Ry     beta= 0.70
     Davidson diagonalization with overlap
     ethr =  2.26E-07,  avg # of iterations =  2.0

     negative rho (up, down):  4.888E-04 0.000E+00

     total cpu time spent up to now is     2512.1 secs

     total energy              =    -176.31997599 Ry
     estimated scf accuracy    <       0.00000552 Ry

     iteration #  3     ecut=    60.00 Ry     beta= 0.70
     Davidson diagonalization with overlap
     ethr =  1.72E-08,  avg # of iterations =  3.0

     negative rho (up, down):  4.887E-04 0.000E+00

     total cpu time spent up to now is     2518.2 secs

     total energy              =    -176.31997715 Ry
     estimated scf accuracy    <       0.00000181 Ry

     iteration #  4     ecut=    60.00 Ry     beta= 0.70
     Davidson diagonalization with overlap
     ethr =  5.67E-09,  avg # of iterations =  2.4

     negative rho (up, down):  4.887E-04 0.000E+00

     total cpu time spent up to now is     2523.6 secs

     total energy              =    -176.31997750 Ry
     estimated scf accuracy    <       0.00000007 Ry

     iteration #  5     ecut=    60.00 Ry     beta= 0.70
     Davidson diagonalization with overlap
     ethr =  2.29E-10,  avg # of iterations =  3.3

     negative rho (up, down):  4.887E-04 0.000E+00

     total cpu time spent up to now is     2530.1 secs

     total energy              =    -176.31997751 Ry
     estimated scf accuracy    <       0.00000005 Ry

     iteration #  6     ecut=    60.00 Ry     beta= 0.70
     Davidson diagonalization with overlap
     ethr =  1.50E-10,  avg # of iterations =  2.0

     negative rho (up, down):  4.887E-04 0.000E+00

     total cpu time spent up to now is     2535.1 secs

     total energy              =    -176.31997752 Ry
     estimated scf accuracy    <          6.1E-09 Ry

     iteration #  7     ecut=    60.00 Ry     beta= 0.70
     Davidson diagonalization with overlap
     ethr =  1.91E-11,  avg # of iterations =  3.1

     negative rho (up, down):  4.887E-04 0.000E+00

     total cpu time spent up to now is     2541.7 secs

     total energy              =    -176.31997752 Ry
     estimated scf accuracy    <          1.7E-09 Ry

     iteration #  8     ecut=    60.00 Ry     beta= 0.70
     Davidson diagonalization with overlap
     ethr =  5.33E-12,  avg # of iterations =  2.0

     negative rho (up, down):  4.887E-04 0.000E+00

     total cpu time spent up to now is     2546.9 secs

     total energy              =    -176.31997752 Ry
     estimated scf accuracy    <          1.5E-10 Ry

     iteration #  9     ecut=    60.00 Ry     beta= 0.70
     Davidson diagonalization with overlap
     ethr =  4.68E-13,  avg # of iterations =  3.0

     negative rho (up, down):  4.887E-04 0.000E+00

     total cpu time spent up to now is     2553.0 secs

     total energy              =    -176.31997752 Ry
     estimated scf accuracy    <          1.9E-12 Ry

     iteration # 10     ecut=    60.00 Ry     beta= 0.70
     Davidson diagonalization with overlap
     ethr =  1.00E-13,  avg # of iterations =  1.6

     negative rho (up, down):  4.887E-04 0.000E+00

     total cpu time spent up to now is     2557.4 secs

     End of self-consistent calculation

          k = 0.0000 0.0000 0.0000 ( 18047 PWs)   bands (ev):

   -24.6885 -24.2721 -23.4652 -23.1216 -12.0623 -12.0137 -11.9321 -11.8562
   -10.1600  -8.9884  -7.5579  -7.0581  -6.4966  -6.4176  -6.3525  -6.2182

          k =-0.0153 0.2863 0.0000 ( 18132 PWs)   bands (ev):

   -24.5514 -24.1400 -23.6384 -23.2863 -12.2328 -12.1594 -11.7319 -11.5853
    -9.9523  -8.9245  -7.7537  -7.3867  -6.5936  -6.4637  -6.2441  -6.1289

          k = 0.0307-0.5725 0.0000 ( 18166 PWs)   bands (ev):

   -24.3246 -23.9338 -23.8831 -23.5421 -12.3011 -12.2606 -11.5741 -11.4210
    -9.6698  -8.8361  -7.9973  -7.7676  -6.6569  -6.4594  -6.1526  -6.0520

          k = 0.2575-0.1328 0.0000 ( 18109 PWs)   bands (ev):

   -24.5488 -24.1378 -23.6400 -23.2887 -12.2761 -12.1746 -11.6723 -11.6175
    -9.9224  -8.9191  -7.7564  -7.3801  -6.5585  -6.4916  -6.2502  -6.1365

          k = 0.2421 0.1535 0.0000 ( 18132 PWs)   bands (ev):

   -24.5495 -24.1479 -23.6393 -23.2779 -12.1047 -12.0271 -11.9303 -11.7591
    -9.8285  -8.8118  -7.9319  -7.4353  -6.4332  -6.3665  -6.2742  -6.2455

          k = 0.2882-0.7053 0.0000 ( 18147 PWs)   bands (ev):

   -24.3196 -23.9666 -23.8701 -23.5257 -12.2520 -12.2148 -11.6884 -11.5188
    -9.4879  -8.5984  -8.2895  -7.8787  -6.5655  -6.4064  -6.1517  -6.0833

          k = 0.2728-0.4190 0.0000 ( 18128 PWs)   bands (ev):

   -24.3195 -23.9365 -23.8793 -23.5473 -12.3476 -12.2794 -11.5301 -11.4345
    -9.6141  -8.7907  -8.0213  -7.8349  -6.6119  -6.4853  -6.1294  -6.0620

          k =-0.5150 0.2656 0.0000 ( 18184 PWs)   bands (ev):

   -24.3134 -23.9403 -23.8749 -23.5534 -12.3715 -12.2720 -11.5178 -11.4581
    -9.6082  -8.8188  -8.0037  -7.7674  -6.6102  -6.4886  -6.1677  -6.0567

          k =-0.5303 0.5518 0.0000 ( 18128 PWs)   bands (ev):

   -24.3137 -23.9696 -23.8668 -23.5312 -12.2924 -12.2239 -11.6541 -11.5322
    -9.4525  -8.5915  -8.3000  -7.8789  -6.5350  -6.4258  -6.1635  -6.0829

          k =-0.4843-0.3070 0.0000 ( 18166 PWs)   bands (ev):

   -24.3123 -23.9987 -23.8575 -23.5123 -12.1476 -12.0120 -11.9688 -11.6532
    -9.2829  -8.6554  -8.1931  -8.0711  -6.4088  -6.2990  -6.2318  -6.2115

     highest occupied level (ev):    -6.0520

!    total energy              =    -176.31997752 Ry

     total all-electron energy =      -611.707522 Ry
     estimated scf accuracy    <          1.3E-13 Ry

     The total energy is the sum of the following terms:
     one-electron contribution =    -669.88291894 Ry
     hartree contribution      =     342.93445914 Ry
     xc contribution           =     -35.62998333 Ry
     ewald contribution        =     224.60920592 Ry
     one-center paw contrib.   =     -38.35074031 Ry

     convergence has been achieved in  10 iterations

     negative rho (up, down):  4.887E-04 0.000E+00

     Forces acting on atoms (cartesian axes, Ry/au):

     atom    1 type  1   force =    -0.00004050    0.00173522    0.00033952
     atom    2 type  1   force =    -0.00068378    0.00219341    0.00012105
     atom    3 type  1   force =    -0.00275028   -0.00130330   -0.00021711
     atom    4 type  1   force =    -0.00027947   -0.00066616    0.00020913
     atom    5 type  1   force =    -0.00059393    0.00042785    0.00041345
     atom    6 type  1   force =     0.00099232   -0.00032675   -0.00101167
     atom    7 type  1   force =    -0.00041919    0.00116632    0.00035598
     atom    8 type  1   force =    -0.00130579    0.00009894   -0.00034501
     atom    9 type  2   force =     0.00090879   -0.00108034   -0.00088620
     atom   10 type  2   force =     0.00045256   -0.00180897   -0.00008838
     atom   11 type  2   force =     0.00058823   -0.00046246    0.00073307
     atom   12 type  2   force =     0.00313104    0.00002623    0.00037616

     Total force =     0.006475     Total SCF correction =     0.000001
     Energy error            =      6.1E-05 Ry
     Gradient error          =      3.1E-03 Ry/Bohr

     number of scf cycles    =  32
     number of bfgs steps    =  30

     energy             old  =    -176.3199160221 Ry
     energy             new  =    -176.3199775191 Ry

     CASE: energy            _new < energy            _old

     new trust radius        =       0.0152287112 bohr
     new conv_thr            =            1.0E-12 Ry


ATOMIC_POSITIONS (angstrom)
H             4.4331122461        3.6468695711       11.1993774985
H             5.3051775346        4.2483850343       10.0182055869
H             3.3613636499        1.2443639707        8.1130471511
H             3.1646698933        2.9138442503        9.3234528911
H             4.0290314754        3.5182267122        8.1344180472
H             6.3696695961        4.0616021676        8.1109614617
H             2.9563814355        1.7334159558       11.2218869380
H             2.0937270154        3.1050487083       11.2441836613
O             5.2477757333        4.1968628049       11.0167770428
O             3.2119853451        2.9765917259        8.3254924953
O             5.4676237993        4.4558302243        8.2724182122
O             2.9948687268        2.7170656328       11.0594650916



     Writing config-only to output data dir ./output/f-BH.save/
     NEW-OLD atomic charge density approx. for the potential

     negative rho (up, down):  4.877E-04 0.000E+00

     total cpu time spent up to now is     2570.1 secs

     per-process dynamical memory:   210.7 Mb

     Self-consistent Calculation

     iteration #  1     ecut=    60.00 Ry     beta= 0.70
     Davidson diagonalization with overlap
     ethr =  1.00E-06,  avg # of iterations =  4.0

     negative rho (up, down):  4.874E-04 0.000E+00

     total cpu time spent up to now is     2578.6 secs

     total energy              =    -176.32003672 Ry
     estimated scf accuracy    <       0.00008975 Ry

     iteration #  2     ecut=    60.00 Ry     beta= 0.70
     Davidson diagonalization with overlap
     ethr =  2.80E-07,  avg # of iterations =  2.0

     negative rho (up, down):  4.874E-04 0.000E+00

     total cpu time spent up to now is     2583.9 secs

     total energy              =    -176.32004680 Ry
     estimated scf accuracy    <       0.00000822 Ry

     iteration #  3     ecut=    60.00 Ry     beta= 0.70
     Davidson diagonalization with overlap
     ethr =  2.57E-08,  avg # of iterations =  3.0

     negative rho (up, down):  4.873E-04 0.000E+00

     total cpu time spent up to now is     2590.1 secs

     total energy              =    -176.32004853 Ry
     estimated scf accuracy    <       0.00000342 Ry

     iteration #  4     ecut=    60.00 Ry     beta= 0.70
     Davidson diagonalization with overlap
     ethr =  1.07E-08,  avg # of iterations =  2.2

     negative rho (up, down):  4.873E-04 0.000E+00

     total cpu time spent up to now is     2595.4 secs

     total energy              =    -176.32004913 Ry
     estimated scf accuracy    <       0.00000009 Ry

     iteration #  5     ecut=    60.00 Ry     beta= 0.70
     Davidson diagonalization with overlap
     ethr =  2.80E-10,  avg # of iterations =  5.1

     negative rho (up, down):  4.873E-04 0.000E+00

     total cpu time spent up to now is     2602.9 secs

     total energy              =    -176.32004917 Ry
     estimated scf accuracy    <       0.00000016 Ry

     iteration #  6     ecut=    60.00 Ry     beta= 0.70
     Davidson diagonalization with overlap
     ethr =  2.80E-10,  avg # of iterations =  2.6

     negative rho (up, down):  4.874E-04 0.000E+00

     total cpu time spent up to now is     2608.4 secs

     total energy              =    -176.32004919 Ry
     estimated scf accuracy    <       0.00000001 Ry

     iteration #  7     ecut=    60.00 Ry     beta= 0.70
     Davidson diagonalization with overlap
     ethr =  3.68E-11,  avg # of iterations =  3.6

     negative rho (up, down):  4.874E-04 0.000E+00

     total cpu time spent up to now is     2615.2 secs

     total energy              =    -176.32004919 Ry
     estimated scf accuracy    <          4.5E-09 Ry

     iteration #  8     ecut=    60.00 Ry     beta= 0.70
     Davidson diagonalization with overlap
     ethr =  1.39E-11,  avg # of iterations =  2.0

     negative rho (up, down):  4.873E-04 0.000E+00

     total cpu time spent up to now is     2620.2 secs

     total energy              =    -176.32004919 Ry
     estimated scf accuracy    <          5.1E-10 Ry

     iteration #  9     ecut=    60.00 Ry     beta= 0.70
     Davidson diagonalization with overlap
     ethr =  1.61E-12,  avg # of iterations =  3.2

     negative rho (up, down):  4.873E-04 0.000E+00

     total cpu time spent up to now is     2626.3 secs

     total energy              =    -176.32004919 Ry
     estimated scf accuracy    <          3.7E-12 Ry

     iteration # 10     ecut=    60.00 Ry     beta= 0.70
     Davidson diagonalization with overlap
     ethr =  1.00E-13,  avg # of iterations =  3.2

     negative rho (up, down):  4.873E-04 0.000E+00

     total cpu time spent up to now is     2632.0 secs

     total energy              =    -176.32004919 Ry
     estimated scf accuracy    <          5.5E-12 Ry

     iteration # 11     ecut=    60.00 Ry     beta= 0.70
     Davidson diagonalization with overlap
     ethr =  1.00E-13,  avg # of iterations =  1.0

     negative rho (up, down):  4.873E-04 0.000E+00

     total cpu time spent up to now is     2636.2 secs

     total energy              =    -176.32004919 Ry
     estimated scf accuracy    <          1.8E-12 Ry

     iteration # 12     ecut=    60.00 Ry     beta= 0.70
     Davidson diagonalization with overlap
     ethr =  1.00E-13,  avg # of iterations =  1.0

     negative rho (up, down):  4.873E-04 0.000E+00

     total cpu time spent up to now is     2640.3 secs

     End of self-consistent calculation

          k = 0.0000 0.0000 0.0000 ( 18047 PWs)   bands (ev):

   -24.6906 -24.2708 -23.4702 -23.1225 -12.0549 -12.0114 -11.9369 -11.8539
   -10.1617  -8.9916  -7.5639  -7.0635  -6.4965  -6.4237  -6.3511  -6.2190

          k =-0.0153 0.2863 0.0000 ( 18132 PWs)   bands (ev):

   -24.5537 -24.1384 -23.6433 -23.2871 -12.2252 -12.1565 -11.7329 -11.5896
    -9.9549  -8.9301  -7.7551  -7.3884  -6.5946  -6.4626  -6.2479  -6.1329

          k = 0.0307-0.5725 0.0000 ( 18166 PWs)   bands (ev):

   -24.3270 -23.9260 -23.8939 -23.5430 -12.2921 -12.2572 -11.5774 -11.4270
    -9.6750  -8.8464  -7.9904  -7.7667  -6.6566  -6.4578  -6.1572  -6.0580

          k = 0.2575-0.1328 0.0000 ( 18109 PWs)   bands (ev):

   -24.5508 -24.1360 -23.6454 -23.2897 -12.2706 -12.1716 -11.6719 -11.6207
    -9.9244  -8.9244  -7.7582  -7.3820  -6.5595  -6.4919  -6.2545  -6.1397

          k = 0.2421 0.1535 0.0000 ( 18132 PWs)   bands (ev):

   -24.5518 -24.1460 -23.6447 -23.2786 -12.0980 -12.0287 -11.9270 -11.7619
    -9.8298  -8.8136  -7.9377  -7.4407  -6.4386  -6.3647  -6.2729  -6.2483

          k = 0.2882-0.7053 0.0000 ( 18147 PWs)   bands (ev):

   -24.3223 -23.9585 -23.8813 -23.5263 -12.2436 -12.2133 -11.6902 -11.5235
    -9.4916  -8.6052  -8.2880  -7.8799  -6.5653  -6.4062  -6.1543  -6.0877

          k = 0.2728-0.4190 0.0000 ( 18128 PWs)   bands (ev):

   -24.3212 -23.9291 -23.8901 -23.5487 -12.3409 -12.2753 -11.5324 -11.4394
    -9.6185  -8.8007  -8.0164  -7.8329  -6.6128  -6.4834  -6.1342  -6.0679

          k =-0.5150 0.2656 0.0000 ( 18184 PWs)   bands (ev):

   -24.3144 -23.9340 -23.8848 -23.5553 -12.3657 -12.2680 -11.5194 -11.4617
    -9.6116  -8.8286  -7.9985  -7.7668  -6.6111  -6.4874  -6.1733  -6.0620

          k =-0.5303 0.5518 0.0000 ( 18128 PWs)   bands (ev):

   -24.3156 -23.9617 -23.8782 -23.5321 -12.2875 -12.2204 -11.6558 -11.5349
    -9.4553  -8.5975  -8.2995  -7.8806  -6.5353  -6.4263  -6.1664  -6.0868

          k =-0.4843-0.3070 0.0000 ( 18166 PWs)   bands (ev):

   -24.3153 -23.9901 -23.8691 -23.5126 -12.1414 -12.0143 -11.9657 -11.6563
    -9.2856  -8.6473  -8.2098  -8.0723  -6.4101  -6.3062  -6.2302  -6.2096

     highest occupied level (ev):    -6.0580

!    total energy              =    -176.32004919 Ry

     total all-electron energy =      -611.707594 Ry
     estimated scf accuracy    <          3.9E-14 Ry

     The total energy is the sum of the following terms:
     one-electron contribution =    -670.07446378 Ry
     hartree contribution      =     343.02899476 Ry
     xc contribution           =     -35.63027368 Ry
     ewald contribution        =     224.70648966 Ry
     one-center paw contrib.   =     -38.35079614 Ry

     convergence has been achieved in  12 iterations

     negative rho (up, down):  4.873E-04 0.000E+00

     Forces acting on atoms (cartesian axes, Ry/au):

     atom    1 type  1   force =     0.00054687    0.00179152   -0.00011352
     atom    2 type  1   force =    -0.00105259    0.00186864    0.00095460
     atom    3 type  1   force =    -0.00333339    0.00022093   -0.00044752
     atom    4 type  1   force =     0.00051502   -0.00031485   -0.00031576
     atom    5 type  1   force =    -0.00061429    0.00004503    0.00102585
     atom    6 type  1   force =     0.00143238   -0.00137023   -0.00120344
     atom    7 type  1   force =     0.00068682   -0.00008665    0.00066660
     atom    8 type  1   force =     0.00015722    0.00040791   -0.00077323
     atom    9 type  2   force =     0.00064266   -0.00082660   -0.00117351
     atom   10 type  2   force =     0.00012803   -0.00144081   -0.00040991
     atom   11 type  2   force =     0.00062485   -0.00098414    0.00108262
     atom   12 type  2   force =     0.00026642    0.00068924    0.00070721

     Total force =     0.006139     Total SCF correction =     0.000000
     Energy error            =      7.2E-05 Ry
     Gradient error          =      3.3E-03 Ry/Bohr

     number of scf cycles    =  33
     number of bfgs steps    =  31

     energy             old  =    -176.3199775191 Ry
     energy             new  =    -176.3200491923 Ry

     CASE: energy            _new < energy            _old

     new trust radius        =       0.0162743926 bohr
     new conv_thr            =            1.0E-12 Ry


ATOMIC_POSITIONS (angstrom)
H             4.4356771089        3.6535183737       11.1989939113
H             5.3069671297        4.2517884114       10.0141813676
H             3.3588018013        1.2391867851        8.1130671416
H             3.1607585697        2.9098932485        9.3278711861
H             4.0239277154        3.5143499602        8.1361691116
H             6.3690954743        4.0583337665        8.1107885037
H             2.9572053622        1.7396769108       11.2203805854
H             2.0954181105        3.1086873504       11.2434112093
O             5.2526009467        4.1990526844       11.0131998717
O             3.2095449165        2.9692002541        8.3291772812
O             5.4655844027        4.4510058854        8.2702509528
O             2.9998049128        2.7234131277       11.0621949554



     Writing config-only to output data dir ./output/f-BH.save/
     NEW-OLD atomic charge density approx. for the potential

     negative rho (up, down):  4.868E-04 0.000E+00

     total cpu time spent up to now is     2653.0 secs

     per-process dynamical memory:   210.2 Mb

     Self-consistent Calculation

     iteration #  1     ecut=    60.00 Ry     beta= 0.70
     Davidson diagonalization with overlap
     ethr =  1.00E-06,  avg # of iterations =  4.0

     negative rho (up, down):  4.864E-04 0.000E+00

     total cpu time spent up to now is     2661.5 secs

     total energy              =    -176.32010921 Ry
     estimated scf accuracy    <       0.00009785 Ry

     iteration #  2     ecut=    60.00 Ry     beta= 0.70
     Davidson diagonalization with overlap
     ethr =  3.06E-07,  avg # of iterations =  2.0

     negative rho (up, down):  4.865E-04 0.000E+00

     total cpu time spent up to now is     2666.8 secs

     total energy              =    -176.32012008 Ry
     estimated scf accuracy    <       0.00000856 Ry

     iteration #  3     ecut=    60.00 Ry     beta= 0.70
     Davidson diagonalization with overlap
     ethr =  2.68E-08,  avg # of iterations =  3.0

     negative rho (up, down):  4.864E-04 0.000E+00

     total cpu time spent up to now is     2672.8 secs

     total energy              =    -176.32012190 Ry
     estimated scf accuracy    <       0.00000358 Ry

     iteration #  4     ecut=    60.00 Ry     beta= 0.70
     Davidson diagonalization with overlap
     ethr =  1.12E-08,  avg # of iterations =  2.6

     negative rho (up, down):  4.864E-04 0.000E+00

     total cpu time spent up to now is     2678.0 secs

     total energy              =    -176.32012254 Ry
     estimated scf accuracy    <       0.00000009 Ry

     iteration #  5     ecut=    60.00 Ry     beta= 0.70
     Davidson diagonalization with overlap
     ethr =  2.84E-10,  avg # of iterations =  4.7

     negative rho (up, down):  4.864E-04 0.000E+00

     total cpu time spent up to now is     2685.1 secs

     total energy              =    -176.32012258 Ry
     estimated scf accuracy    <       0.00000012 Ry

     iteration #  6     ecut=    60.00 Ry     beta= 0.70
     Davidson diagonalization with overlap
     ethr =  2.84E-10,  avg # of iterations =  2.0

     negative rho (up, down):  4.864E-04 0.000E+00

     total cpu time spent up to now is     2690.3 secs

     total energy              =    -176.32012259 Ry
     estimated scf accuracy    <       0.00000001 Ry

     iteration #  7     ecut=    60.00 Ry     beta= 0.70
     Davidson diagonalization with overlap
     ethr =  3.19E-11,  avg # of iterations =  3.2

     negative rho (up, down):  4.864E-04 0.000E+00

     total cpu time spent up to now is     2696.9 secs

     total energy              =    -176.32012259 Ry
     estimated scf accuracy    <          4.6E-09 Ry

     iteration #  8     ecut=    60.00 Ry     beta= 0.70
     Davidson diagonalization with overlap
     ethr =  1.45E-11,  avg # of iterations =  2.0

     negative rho (up, down):  4.864E-04 0.000E+00

     total cpu time spent up to now is     2702.0 secs

     total energy              =    -176.32012259 Ry
     estimated scf accuracy    <          4.7E-10 Ry

     iteration #  9     ecut=    60.00 Ry     beta= 0.70
     Davidson diagonalization with overlap
     ethr =  1.46E-12,  avg # of iterations =  3.0

     negative rho (up, down):  4.864E-04 0.000E+00

     total cpu time spent up to now is     2708.0 secs

     total energy              =    -176.32012259 Ry
     estimated scf accuracy    <          4.5E-12 Ry

     iteration # 10     ecut=    60.00 Ry     beta= 0.70
     Davidson diagonalization with overlap
     ethr =  1.00E-13,  avg # of iterations =  2.0

     negative rho (up, down):  4.864E-04 0.000E+00

     total cpu time spent up to now is     2713.3 secs

     End of self-consistent calculation

          k = 0.0000 0.0000 0.0000 ( 18047 PWs)   bands (ev):

   -24.6923 -24.2689 -23.4737 -23.1216 -12.0478 -12.0072 -11.9408 -11.8521
   -10.1636  -8.9964  -7.5685  -7.0677  -6.4968  -6.4288  -6.3513  -6.2183

          k =-0.0153 0.2863 0.0000 ( 18132 PWs)   bands (ev):

   -24.5555 -24.1366 -23.6465 -23.2861 -12.2178 -12.1540 -11.7320 -11.5932
    -9.9572  -8.9368  -7.7560  -7.3903  -6.5946  -6.4627  -6.2519  -6.1349

          k = 0.0307-0.5725 0.0000 ( 18166 PWs)   bands (ev):

   -24.3291 -23.9214 -23.8995 -23.5418 -12.2831 -12.2550 -11.5784 -11.4320
    -9.6785  -8.8567  -7.9844  -7.7680  -6.6551  -6.4572  -6.1621  -6.0619

          k = 0.2575-0.1328 0.0000 ( 18109 PWs)   bands (ev):

   -24.5523 -24.1339 -23.6491 -23.2889 -12.2642 -12.1681 -11.6719 -11.6232
    -9.9261  -8.9299  -7.7602  -7.3845  -6.5605  -6.4918  -6.2577  -6.1420

          k = 0.2421 0.1535 0.0000 ( 18132 PWs)   bands (ev):

   -24.5536 -24.1438 -23.6483 -23.2777 -12.0911 -12.0291 -11.9241 -11.7639
    -9.8312  -8.8173  -7.9421  -7.4451  -6.4425  -6.3638  -6.2734  -6.2494

          k = 0.2882-0.7053 0.0000 ( 18147 PWs)   bands (ev):

   -24.3245 -23.9534 -23.8874 -23.5251 -12.2347 -12.2128 -11.6907 -11.5270
    -9.4943  -8.6127  -8.2869  -7.8816  -6.5639  -6.4068  -6.1573  -6.0907

          k = 0.2728-0.4190 0.0000 ( 18128 PWs)   bands (ev):

   -24.3227 -23.9253 -23.8952 -23.5480 -12.3337 -12.2715 -11.5338 -11.4437
    -9.6211  -8.8093  -8.0135  -7.8333  -6.6125  -6.4818  -6.1385  -6.0722

          k =-0.5150 0.2656 0.0000 ( 18184 PWs)   bands (ev):

   -24.3152 -23.9315 -23.8889 -23.5551 -12.3589 -12.2638 -11.5220 -11.4646
    -9.6136  -8.8358  -7.9965  -7.7684  -6.6117  -6.4856  -6.1771  -6.0664

          k =-0.5303 0.5518 0.0000 ( 18128 PWs)   bands (ev):

   -24.3173 -23.9567 -23.8845 -23.5313 -12.2815 -12.2169 -11.6575 -11.5370
    -9.4570  -8.6029  -8.3001  -7.8835  -6.5352  -6.4262  -6.1687  -6.0904

          k =-0.4843-0.3070 0.0000 ( 18166 PWs)   bands (ev):

   -24.3178 -23.9844 -23.8757 -23.5113 -12.1347 -12.0157 -11.9627 -11.6585
    -9.2875  -8.6433  -8.2223  -8.0741  -6.4104  -6.3109  -6.2296  -6.2095

     highest occupied level (ev):    -6.0619

!    total energy              =    -176.32012259 Ry

     total all-electron energy =      -611.707667 Ry
     estimated scf accuracy    <          5.7E-13 Ry

     The total energy is the sum of the following terms:
     one-electron contribution =    -670.24479432 Ry
     hartree contribution      =     343.11305245 Ry
     xc contribution           =     -35.62992239 Ry
     ewald contribution        =     224.79238312 Ry
     one-center paw contrib.   =     -38.35084146 Ry

     convergence has been achieved in  10 iterations

     negative rho (up, down):  4.864E-04 0.000E+00

     Forces acting on atoms (cartesian axes, Ry/au):

     atom    1 type  1   force =     0.00093423    0.00149116   -0.00044699
     atom    2 type  1   force =    -0.00114870    0.00134840    0.00119384
     atom    3 type  1   force =    -0.00326389    0.00146741   -0.00069879
     atom    4 type  1   force =     0.00113656   -0.00005274   -0.00087256
     atom    5 type  1   force =    -0.00062367   -0.00059593    0.00137218
     atom    6 type  1   force =     0.00076056   -0.00162443   -0.00110545
     atom    7 type  1   force =     0.00181679   -0.00080166    0.00093886
     atom    8 type  1   force =     0.00148873    0.00077241   -0.00110591
     atom    9 type  2   force =     0.00038715   -0.00008217   -0.00097367
     atom   10 type  2   force =    -0.00009624   -0.00063381   -0.00043479
     atom   11 type  2   force =     0.00110016   -0.00201678    0.00119202
     atom   12 type  2   force =    -0.00249167    0.00072813    0.00094126

     Total force =     0.007427     Total SCF correction =     0.000001
     Energy error            =      7.3E-05 Ry
     Gradient error          =      3.3E-03 Ry/Bohr

     number of scf cycles    =  34
     number of bfgs steps    =  32

     energy             old  =    -176.3200491923 Ry
     energy             new  =    -176.3201225922 Ry

     CASE: energy            _new < energy            _old

     new trust radius        =       0.0200788967 bohr
     new conv_thr            =            1.0E-12 Ry


ATOMIC_POSITIONS (angstrom)
H             4.4389401020        3.6631523135       11.1983936466
H             5.3080065176        4.2569251489       10.0098405830
H             3.3527050803        1.2334554372        8.1120667879
H             3.1567919014        2.9040253545        9.3322207241
H             4.0180023880        3.5090868118        8.1397999820
H             6.3688843925        4.0540986206        8.1104838302
H             2.9606035660        1.7469539770       11.2192929215
H             2.0966793372        3.1132262458       11.2416126530
O             5.2592243655        4.2020479373       11.0092430396
O             3.2067394839        2.9596559990        8.3329100583
O             5.4640450415        4.4447767433        8.2681099991
O             3.0047642750        2.7307021692       11.0657118525



     Writing config-only to output data dir ./output/f-BH.save/
     NEW-OLD atomic charge density approx. for the potential

     negative rho (up, down):  4.862E-04 0.000E+00

     total cpu time spent up to now is     2726.0 secs

     per-process dynamical memory:   210.7 Mb

     Self-consistent Calculation

     iteration #  1     ecut=    60.00 Ry     beta= 0.70
     Davidson diagonalization with overlap
     ethr =  1.00E-06,  avg # of iterations =  4.8

     negative rho (up, down):  4.859E-04 0.000E+00

     total cpu time spent up to now is     2735.1 secs

     total energy              =    -176.32019398 Ry
     estimated scf accuracy    <       0.00014574 Ry

     iteration #  2     ecut=    60.00 Ry     beta= 0.70
     Davidson diagonalization with overlap
     ethr =  4.55E-07,  avg # of iterations =  2.0

     negative rho (up, down):  4.859E-04 0.000E+00

     total cpu time spent up to now is     2740.3 secs

     total energy              =    -176.32020925 Ry
     estimated scf accuracy    <       0.00000862 Ry

     iteration #  3     ecut=    60.00 Ry     beta= 0.70
     Davidson diagonalization with overlap
     ethr =  2.69E-08,  avg # of iterations =  2.8

     negative rho (up, down):  4.858E-04 0.000E+00

     total cpu time spent up to now is     2746.3 secs

     total energy              =    -176.32021102 Ry
     estimated scf accuracy    <       0.00000232 Ry

     iteration #  4     ecut=    60.00 Ry     beta= 0.70
     Davidson diagonalization with overlap
     ethr =  7.24E-09,  avg # of iterations =  2.4

     negative rho (up, down):  4.858E-04 0.000E+00

     total cpu time spent up to now is     2751.8 secs

     total energy              =    -176.32021153 Ry
     estimated scf accuracy    <       0.00000014 Ry

     iteration #  5     ecut=    60.00 Ry     beta= 0.70
     Davidson diagonalization with overlap
     ethr =  4.52E-10,  avg # of iterations =  2.6

     negative rho (up, down):  4.858E-04 0.000E+00

     total cpu time spent up to now is     2757.6 secs

     total energy              =    -176.32021155 Ry
     estimated scf accuracy    <       0.00000005 Ry

     iteration #  6     ecut=    60.00 Ry     beta= 0.70
     Davidson diagonalization with overlap
     ethr =  1.61E-10,  avg # of iterations =  2.0

     negative rho (up, down):  4.859E-04 0.000E+00

     total cpu time spent up to now is     2762.8 secs

     total energy              =    -176.32021155 Ry
     estimated scf accuracy    <          5.2E-09 Ry

     iteration #  7     ecut=    60.00 Ry     beta= 0.70
     Davidson diagonalization with overlap
     ethr =  1.63E-11,  avg # of iterations =  3.0

     negative rho (up, down):  4.859E-04 0.000E+00

     total cpu time spent up to now is     2769.5 secs

     total energy              =    -176.32021155 Ry
     estimated scf accuracy    <          2.4E-09 Ry

     iteration #  8     ecut=    60.00 Ry     beta= 0.70
     Davidson diagonalization with overlap
     ethr =  7.47E-12,  avg # of iterations =  2.0

     negative rho (up, down):  4.859E-04 0.000E+00

     total cpu time spent up to now is     2774.6 secs

     total energy              =    -176.32021155 Ry
     estimated scf accuracy    <          2.3E-10 Ry

     iteration #  9     ecut=    60.00 Ry     beta= 0.70
     Davidson diagonalization with overlap
     ethr =  7.15E-13,  avg # of iterations =  3.0

     negative rho (up, down):  4.859E-04 0.000E+00

     total cpu time spent up to now is     2781.0 secs

     total energy              =    -176.32021155 Ry
     estimated scf accuracy    <          2.2E-11 Ry

     iteration # 10     ecut=    60.00 Ry     beta= 0.70
     Davidson diagonalization with overlap
     ethr =  1.00E-13,  avg # of iterations =  2.0

     negative rho (up, down):  4.859E-04 0.000E+00

     total cpu time spent up to now is     2786.3 secs

     total energy              =    -176.32021155 Ry
     estimated scf accuracy    <          3.8E-12 Ry

     iteration # 11     ecut=    60.00 Ry     beta= 0.70
     Davidson diagonalization with overlap
     ethr =  1.00E-13,  avg # of iterations =  1.0

     negative rho (up, down):  4.859E-04 0.000E+00

     total cpu time spent up to now is     2790.4 secs

     End of self-consistent calculation

          k = 0.0000 0.0000 0.0000 ( 18047 PWs)   bands (ev):

   -24.6955 -24.2684 -23.4780 -23.1210 -12.0484 -11.9993 -11.9444 -11.8558
   -10.1651  -9.0040  -7.5727  -7.0723  -6.4981  -6.4336  -6.3549  -6.2158

          k =-0.0153 0.2863 0.0000 ( 18132 PWs)   bands (ev):

   -24.5589 -24.1361 -23.6505 -23.2854 -12.2142 -12.1551 -11.7308 -11.5993
    -9.9570  -8.9449  -7.7591  -7.3945  -6.5938  -6.4656  -6.2566  -6.1353

          k = 0.0307-0.5725 0.0000 ( 18166 PWs)   bands (ev):

   -24.3329 -23.9242 -23.8999 -23.5409 -12.2769 -12.2582 -11.5790 -11.4391
    -9.6769  -8.8652  -7.9856  -7.7732  -6.6521  -6.4586  -6.1678  -6.0642

          k = 0.2575-0.1328 0.0000 ( 18109 PWs)   bands (ev):

   -24.5554 -24.1332 -23.6536 -23.2885 -12.2583 -12.1673 -11.6754 -11.6285
    -9.9265  -8.9364  -7.7642  -7.3897  -6.5624  -6.4918  -6.2603  -6.1434

          k = 0.2421 0.1535 0.0000 ( 18132 PWs)   bands (ev):

   -24.5572 -24.1435 -23.6520 -23.2768 -12.0910 -12.0276 -11.9264 -11.7651
    -9.8318  -8.8246  -7.9455  -7.4493  -6.4445  -6.3657  -6.2777  -6.2486

          k = 0.2882-0.7053 0.0000 ( 18147 PWs)   bands (ev):

   -24.3287 -23.9554 -23.8884 -23.5238 -12.2286 -12.2174 -11.6923 -11.5311
    -9.4934  -8.6199  -8.2899  -7.8859  -6.5611  -6.4090  -6.1619  -6.0935

          k = 0.2728-0.4190 0.0000 ( 18128 PWs)   bands (ev):

   -24.3257 -23.9291 -23.8948 -23.5477 -12.3280 -12.2714 -11.5375 -11.4505
    -9.6198  -8.8157  -8.0163  -7.8391  -6.6114  -6.4814  -6.1427  -6.0753

          k =-0.5150 0.2656 0.0000 ( 18184 PWs)   bands (ev):

   -24.3174 -23.9361 -23.8882 -23.5554 -12.3521 -12.2622 -11.5296 -11.4699
    -9.6128  -8.8399  -8.0012  -7.7747  -6.6124  -6.4835  -6.1794  -6.0702

          k =-0.5303 0.5518 0.0000 ( 18128 PWs)   bands (ev):

   -24.3208 -23.9588 -23.8857 -23.5306 -12.2764 -12.2169 -11.6632 -11.5405
    -9.4564  -8.6075  -8.3043  -7.8892  -6.5347  -6.4260  -6.1710  -6.0948

          k =-0.4843-0.3070 0.0000 ( 18166 PWs)   bands (ev):

   -24.3226 -23.9854 -23.8773 -23.5097 -12.1345 -12.0164 -11.9649 -11.6598
    -9.2875  -8.6485  -8.2273  -8.0773  -6.4086  -6.3137  -6.2324  -6.2134

     highest occupied level (ev):    -6.0642

!    total energy              =    -176.32021155 Ry

     total all-electron energy =      -611.707756 Ry
     estimated scf accuracy    <          1.1E-13 Ry

     The total energy is the sum of the following terms:
     one-electron contribution =    -670.41607606 Ry
     hartree contribution      =     343.19650354 Ry
     xc contribution           =     -35.62994543 Ry
     ewald contribution        =     224.88017380 Ry
     one-center paw contrib.   =     -38.35086741 Ry

     convergence has been achieved in  11 iterations

     negative rho (up, down):  4.859E-04 0.000E+00

     Forces acting on atoms (cartesian axes, Ry/au):

     atom    1 type  1   force =     0.00115427    0.00087358   -0.00047838
     atom    2 type  1   force =    -0.00083134    0.00077427    0.00111453
     atom    3 type  1   force =    -0.00250449    0.00147218   -0.00080993
     atom    4 type  1   force =     0.00148300    0.00010832   -0.00108497
     atom    5 type  1   force =    -0.00008981   -0.00114157    0.00116421
     atom    6 type  1   force =     0.00037666   -0.00160802   -0.00109203
     atom    7 type  1   force =     0.00251286   -0.00159175    0.00140140
     atom    8 type  1   force =     0.00281543    0.00078543   -0.00129683
     atom    9 type  2   force =    -0.00014215    0.00084050   -0.00075450
     atom   10 type  2   force =    -0.00052549    0.00019685   -0.00027695
     atom   11 type  2   force =     0.00044679   -0.00197554    0.00129555
     atom   12 type  2   force =    -0.00469574    0.00126576    0.00081791

     Total force =     0.008761     Total SCF correction =     0.000000
     Energy error            =      8.9E-05 Ry
     Gradient error          =      4.7E-03 Ry/Bohr

     number of scf cycles    =  35
     number of bfgs steps    =  33

     energy             old  =    -176.3201225922 Ry
     energy             new  =    -176.3202115547 Ry

     CASE: energy            _new < energy            _old

     new trust radius        =       0.0250731429 bohr
     new conv_thr            =            1.0E-12 Ry


ATOMIC_POSITIONS (angstrom)
H             4.4439704070        3.6754130674       11.1977507060
H             5.3085042573        4.2631981963       10.0052187680
H             3.3440799489        1.2271827323        8.1098306590
H             3.1530194915        2.8970610080        9.3367070130
H             4.0114152388        3.5015909057        8.1444273204
H             6.3693292023        4.0482892898        8.1095990903
H             2.9664260936        1.7542775140       11.2197851993
H             2.0977369191        3.1191626719       11.2389347414
O             5.2674994853        4.2067526809       11.0047395235
O             3.2024709085        2.9486845126        8.3367174393
O             5.4626170388        4.4377464375        8.2663830374
O             3.0083174598        2.7387477415       11.0695925801



     Writing config-only to output data dir ./output/f-BH.save/
     NEW-OLD atomic charge density approx. for the potential

     negative rho (up, down):  4.859E-04 0.000E+00

     total cpu time spent up to now is     2803.0 secs

     per-process dynamical memory:   210.2 Mb

     Self-consistent Calculation

     iteration #  1     ecut=    60.00 Ry     beta= 0.70
     Davidson diagonalization with overlap
     ethr =  1.00E-06,  avg # of iterations =  5.0

     negative rho (up, down):  4.857E-04 0.000E+00

     total cpu time spent up to now is     2812.3 secs

     total energy              =    -176.32028504 Ry
     estimated scf accuracy    <       0.00019934 Ry

     iteration #  2     ecut=    60.00 Ry     beta= 0.70
     Davidson diagonalization with overlap
     ethr =  6.23E-07,  avg # of iterations =  2.0

     negative rho (up, down):  4.857E-04 0.000E+00

     total cpu time spent up to now is     2817.2 secs

     total energy              =    -176.32030500 Ry
     estimated scf accuracy    <       0.00000944 Ry

     iteration #  3     ecut=    60.00 Ry     beta= 0.70
     Davidson diagonalization with overlap
     ethr =  2.95E-08,  avg # of iterations =  2.5

     negative rho (up, down):  4.857E-04 0.000E+00

     total cpu time spent up to now is     2822.7 secs

     total energy              =    -176.32030706 Ry
     estimated scf accuracy    <       0.00000103 Ry

     iteration #  4     ecut=    60.00 Ry     beta= 0.70
     Davidson diagonalization with overlap
     ethr =  3.23E-09,  avg # of iterations =  2.9

     negative rho (up, down):  4.857E-04 0.000E+00

     total cpu time spent up to now is     2828.6 secs

     total energy              =    -176.32030732 Ry
     estimated scf accuracy    <       0.00000027 Ry

     iteration #  5     ecut=    60.00 Ry     beta= 0.70
     Davidson diagonalization with overlap
     ethr =  8.37E-10,  avg # of iterations =  2.2

     negative rho (up, down):  4.857E-04 0.000E+00

     total cpu time spent up to now is     2834.1 secs

     total energy              =    -176.32030736 Ry
     estimated scf accuracy    <       0.00000002 Ry

     iteration #  6     ecut=    60.00 Ry     beta= 0.70
     Davidson diagonalization with overlap
     ethr =  5.40E-11,  avg # of iterations =  3.0

     negative rho (up, down):  4.857E-04 0.000E+00

     total cpu time spent up to now is     2840.1 secs

     total energy              =    -176.32030737 Ry
     estimated scf accuracy    <          2.5E-09 Ry

     iteration #  7     ecut=    60.00 Ry     beta= 0.70
     Davidson diagonalization with overlap
     ethr =  7.74E-12,  avg # of iterations =  2.0

     negative rho (up, down):  4.857E-04 0.000E+00

     total cpu time spent up to now is     2845.4 secs

     total energy              =    -176.32030737 Ry
     estimated scf accuracy    <          7.2E-10 Ry

     iteration #  8     ecut=    60.00 Ry     beta= 0.70
     Davidson diagonalization with overlap
     ethr =  2.24E-12,  avg # of iterations =  2.0

     negative rho (up, down):  4.857E-04 0.000E+00

     total cpu time spent up to now is     2850.8 secs

     total energy              =    -176.32030737 Ry
     estimated scf accuracy    <          1.8E-11 Ry

     iteration #  9     ecut=    60.00 Ry     beta= 0.70
     Davidson diagonalization with overlap
     ethr =  1.00E-13,  avg # of iterations =  3.2

     negative rho (up, down):  4.857E-04 0.000E+00

     total cpu time spent up to now is     2857.5 secs

     total energy              =    -176.32030737 Ry
     estimated scf accuracy    <          2.0E-11 Ry

     iteration # 10     ecut=    60.00 Ry     beta= 0.70
     Davidson diagonalization with overlap
     ethr =  1.00E-13,  avg # of iterations =  2.0

     negative rho (up, down):  4.857E-04 0.000E+00

     total cpu time spent up to now is     2862.2 secs

     total energy              =    -176.32030737 Ry
     estimated scf accuracy    <          1.2E-12 Ry

     iteration # 11     ecut=    60.00 Ry     beta= 0.70
     Davidson diagonalization with overlap
     ethr =  1.00E-13,  avg # of iterations =  1.0

     negative rho (up, down):  4.857E-04 0.000E+00

     total cpu time spent up to now is     2866.4 secs

     End of self-consistent calculation

          k = 0.0000 0.0000 0.0000 ( 18047 PWs)   bands (ev):

   -24.6974 -24.2658 -23.4801 -23.1170 -12.0529 -11.9856 -11.9450 -11.8614
   -10.1637  -9.0125  -7.5755  -7.0744  -6.4986  -6.4344  -6.3601  -6.2084

          k =-0.0153 0.2863 0.0000 ( 18132 PWs)   bands (ev):

   -24.5610 -24.1339 -23.6520 -23.2814 -12.2119 -12.1555 -11.7271 -11.6054
    -9.9516  -8.9515  -7.7637  -7.3983  -6.5907  -6.4690  -6.2584  -6.1306

          k = 0.0307-0.5725 0.0000 ( 18166 PWs)   bands (ev):

   -24.3356 -23.9342 -23.8889 -23.5364 -12.2743 -12.2587 -11.5778 -11.4464
    -9.6663  -8.8675  -7.9952  -7.7795  -6.6462  -6.4603  -6.1701  -6.0614

          k = 0.2575-0.1328 0.0000 ( 18109 PWs)   bands (ev):

   -24.5569 -24.1307 -23.6557 -23.2849 -12.2501 -12.1653 -11.6796 -11.6342
    -9.9226  -8.9412  -7.7697  -7.3954  -6.5633  -6.4903  -6.2594  -6.1398

          k = 0.2421 0.1535 0.0000 ( 18132 PWs)   bands (ev):

   -24.5598 -24.1422 -23.6523 -23.2722 -12.0952 -12.0219 -11.9306 -11.7626
    -9.8294  -8.8333  -7.9462  -7.4503  -6.4410  -6.3690  -6.2835  -6.2431

          k = 0.2882-0.7053 0.0000 ( 18147 PWs)   bands (ev):

   -24.3326 -23.9640 -23.8782 -23.5184 -12.2282 -12.2180 -11.6931 -11.5338
    -9.4855  -8.6228  -8.2970  -7.8901  -6.5551  -6.4106  -6.1646  -6.0929

          k = 0.2728-0.4190 0.0000 ( 18128 PWs)   bands (ev):

   -24.3272 -23.9396 -23.8838 -23.5442 -12.3210 -12.2706 -11.5412 -11.4580
    -9.6103  -8.8156  -8.0249  -7.8488  -6.6077  -6.4804  -6.1433  -6.0733

          k =-0.5150 0.2656 0.0000 ( 18184 PWs)   bands (ev):

   -24.3177 -23.9466 -23.8776 -23.5530 -12.3421 -12.2592 -11.5388 -11.4761
    -9.6051  -8.8372  -8.0129  -7.7848  -6.6114  -6.4798  -6.1766  -6.0692

          k =-0.5303 0.5518 0.0000 ( 18128 PWs)   bands (ev):

   -24.3235 -23.9677 -23.8760 -23.5260 -12.2697 -12.2167 -11.6700 -11.5436
    -9.4500  -8.6079  -8.3116  -7.8957  -6.5317  -6.4239  -6.1708  -6.0964

          k =-0.4843-0.3070 0.0000 ( 18166 PWs)   bands (ev):

   -24.3277 -23.9929 -23.8679 -23.5031 -12.1383 -12.0143 -11.9683 -11.6579
    -9.2828  -8.6641  -8.2181  -8.0801  -6.4013  -6.3111  -6.2378  -6.2187

     highest occupied level (ev):    -6.0614

!    total energy              =    -176.32030737 Ry

     total all-electron energy =      -611.707852 Ry
     estimated scf accuracy    <          2.6E-13 Ry

     The total energy is the sum of the following terms:
     one-electron contribution =    -670.60814163 Ry
     hartree contribution      =     343.29214697 Ry
     xc contribution           =     -35.62978597 Ry
     ewald contribution        =     224.97634404 Ry
     one-center paw contrib.   =     -38.35087078 Ry

     convergence has been achieved in  11 iterations

     negative rho (up, down):  4.857E-04 0.000E+00

     Forces acting on atoms (cartesian axes, Ry/au):

     atom    1 type  1   force =     0.00088073   -0.00002109   -0.00014233
     atom    2 type  1   force =    -0.00010369    0.00037499    0.00033015
     atom    3 type  1   force =    -0.00129916    0.00072068   -0.00076855
     atom    4 type  1   force =     0.00137980    0.00008004   -0.00105483
     atom    5 type  1   force =     0.00044389   -0.00160888    0.00053095
     atom    6 type  1   force =    -0.00116060   -0.00070973   -0.00077735
     atom    7 type  1   force =     0.00250004   -0.00108102    0.00166528
     atom    8 type  1   force =     0.00281322    0.00070594   -0.00106229
     atom    9 type  2   force =    -0.00089662    0.00182772   -0.00011888
     atom   10 type  2   force =    -0.00047259    0.00128509   -0.00000376
     atom   11 type  2   force =     0.00033826   -0.00218639    0.00104434
     atom   12 type  2   force =    -0.00442327    0.00061264    0.00035725

     Total force =     0.008014     Total SCF correction =     0.000001
     Energy error            =      9.6E-05 Ry
     Gradient error          =      4.4E-03 Ry/Bohr

     number of scf cycles    =  36
     number of bfgs steps    =  34

     energy             old  =    -176.3202115547 Ry
     energy             new  =    -176.3203073695 Ry

     CASE: energy            _new < energy            _old

     new trust radius        =       0.0206619652 bohr
     new conv_thr            =            1.0E-12 Ry


ATOMIC_POSITIONS (angstrom)
H             4.4487487448        3.6852364885       11.1972851223
H             5.3087247614        4.2678935699       10.0018554530
H             3.3367471186        1.2224699939        8.1073952191
H             3.1509860648        2.8916306170        9.3394280060
H             4.0069515809        3.4944576251        8.1483719024
H             6.3689110067        4.0433980069        8.1087709236
H             2.9729916191        1.7590603032       11.2215301469
H             2.0981856336        3.1244446392       11.2365945892
O             5.2736181654        4.2123265827       11.0015498600
O             3.1986015896        2.9412470279        8.3392496318
O             5.4617769761        4.4319268227        8.2654399770
O             3.0091431897        2.7440150810       11.0722152467



     Writing config-only to output data dir ./output/f-BH.save/
     NEW-OLD atomic charge density approx. for the potential

     negative rho (up, down):  4.860E-04 0.000E+00

     total cpu time spent up to now is     2879.0 secs

     per-process dynamical memory:   210.7 Mb

     Self-consistent Calculation

     iteration #  1     ecut=    60.00 Ry     beta= 0.70
     Davidson diagonalization with overlap
     ethr =  1.00E-06,  avg # of iterations =  4.5

     negative rho (up, down):  4.859E-04 0.000E+00

     total cpu time spent up to now is     2887.8 secs

     total energy              =    -176.32036412 Ry
     estimated scf accuracy    <       0.00011238 Ry

     iteration #  2     ecut=    60.00 Ry     beta= 0.70
     Davidson diagonalization with overlap
     ethr =  3.51E-07,  avg # of iterations =  2.0

     negative rho (up, down):  4.858E-04 0.000E+00

     total cpu time spent up to now is     2892.9 secs

     total energy              =    -176.32037647 Ry
     estimated scf accuracy    <       0.00000675 Ry

     iteration #  3     ecut=    60.00 Ry     beta= 0.70
     Davidson diagonalization with overlap
     ethr =  2.11E-08,  avg # of iterations =  2.6

     negative rho (up, down):  4.858E-04 0.000E+00

     total cpu time spent up to now is     2898.6 secs

     total energy              =    -176.32037773 Ry
     estimated scf accuracy    <       0.00000150 Ry

     iteration #  4     ecut=    60.00 Ry     beta= 0.70
     Davidson diagonalization with overlap
     ethr =  4.69E-09,  avg # of iterations =  2.3

     negative rho (up, down):  4.857E-04 0.000E+00

     total cpu time spent up to now is     2904.3 secs

     total energy              =    -176.32037810 Ry
     estimated scf accuracy    <       0.00000012 Ry

     iteration #  5     ecut=    60.00 Ry     beta= 0.70
     Davidson diagonalization with overlap
     ethr =  3.85E-10,  avg # of iterations =  2.0

     negative rho (up, down):  4.857E-04 0.000E+00

     total cpu time spent up to now is     2909.8 secs

     total energy              =    -176.32037811 Ry
     estimated scf accuracy    <       0.00000002 Ry

     iteration #  6     ecut=    60.00 Ry     beta= 0.70
     Davidson diagonalization with overlap
     ethr =  6.35E-11,  avg # of iterations =  2.2

     negative rho (up, down):  4.857E-04 0.000E+00

     total cpu time spent up to now is     2915.3 secs

     total energy              =    -176.32037811 Ry
     estimated scf accuracy    <          9.5E-10 Ry

     iteration #  7     ecut=    60.00 Ry     beta= 0.70
     Davidson diagonalization with overlap
     ethr =  2.96E-12,  avg # of iterations =  4.0

     negative rho (up, down):  4.857E-04 0.000E+00

     total cpu time spent up to now is     2922.4 secs

     total energy              =    -176.32037811 Ry
     estimated scf accuracy    <          1.3E-09 Ry

     iteration #  8     ecut=    60.00 Ry     beta= 0.70
     Davidson diagonalization with overlap
     ethr =  2.96E-12,  avg # of iterations =  2.0

     negative rho (up, down):  4.857E-04 0.000E+00

     total cpu time spent up to now is     2927.7 secs

     total energy              =    -176.32037811 Ry
     estimated scf accuracy    <          7.8E-11 Ry

     iteration #  9     ecut=    60.00 Ry     beta= 0.70
     Davidson diagonalization with overlap
     ethr =  2.45E-13,  avg # of iterations =  3.9

     negative rho (up, down):  4.857E-04 0.000E+00

     total cpu time spent up to now is     2934.6 secs

     total energy              =    -176.32037811 Ry
     estimated scf accuracy    <          2.8E-11 Ry

     iteration # 10     ecut=    60.00 Ry     beta= 0.70
     Davidson diagonalization with overlap
     ethr =  1.00E-13,  avg # of iterations =  2.0

     negative rho (up, down):  4.857E-04 0.000E+00

     total cpu time spent up to now is     2939.5 secs

     total energy              =    -176.32037811 Ry
     estimated scf accuracy    <          6.6E-12 Ry

     iteration # 11     ecut=    60.00 Ry     beta= 0.70
     Davidson diagonalization with overlap
     ethr =  1.00E-13,  avg # of iterations =  1.0

     negative rho (up, down):  4.857E-04 0.000E+00

     total cpu time spent up to now is     2943.6 secs

     End of self-consistent calculation

          k = 0.0000 0.0000 0.0000 ( 18047 PWs)   bands (ev):

   -24.6990 -24.2648 -23.4813 -23.1143 -12.0626 -11.9749 -11.9434 -11.8709
   -10.1596  -9.0174  -7.5759  -7.0734  -6.4982  -6.4318  -6.3644  -6.2012

          k =-0.0153 0.2863 0.0000 ( 18132 PWs)   bands (ev):

   -24.5627 -24.1334 -23.6525 -23.2785 -12.2145 -12.1589 -11.7251 -11.6116
    -9.9427  -8.9529  -7.7682  -7.4005  -6.5870  -6.4720  -6.2566  -6.1248

          k = 0.0307-0.5725 0.0000 ( 18166 PWs)   bands (ev):

   -24.3377 -23.9462 -23.8770 -23.5331 -12.2769 -12.2629 -11.5780 -11.4532
    -9.6502  -8.8624  -8.0074  -7.7864  -6.6405  -6.4621  -6.1678  -6.0567

          k = 0.2575-0.1328 0.0000 ( 18109 PWs)   bands (ev):

   -24.5584 -24.1299 -23.6565 -23.2824 -12.2456 -12.1663 -11.6859 -11.6403
    -9.9166  -8.9420  -7.7737  -7.3988  -6.5636  -6.4882  -6.2559  -6.1346

          k = 0.2421 0.1535 0.0000 ( 18132 PWs)   bands (ev):

   -24.5623 -24.1428 -23.6513 -23.2686 -12.1054 -12.0156 -11.9404 -11.7586
    -9.8250  -8.8393  -7.9439  -7.4478  -6.4345  -6.3724  -6.2882  -6.2373

          k = 0.2882-0.7053 0.0000 ( 18147 PWs)   bands (ev):

   -24.3362 -23.9749 -23.8668 -23.5138 -12.2350 -12.2197 -11.6959 -11.5357
    -9.4739  -8.6207  -8.3041  -7.8926  -6.5492  -6.4119  -6.1642  -6.0908

          k = 0.2728-0.4190 0.0000 ( 18128 PWs)   bands (ev):

   -24.3285 -23.9516 -23.8721 -23.5419 -12.3180 -12.2735 -11.5464 -11.4653
    -9.5974  -8.8091  -8.0354  -7.8574  -6.6038  -6.4799  -6.1400  -6.0691

          k =-0.5150 0.2656 0.0000 ( 18184 PWs)   bands (ev):

   -24.3180 -23.9584 -23.8661 -23.5517 -12.3355 -12.2598 -11.5493 -11.4827
    -9.5956  -8.8295  -8.0243  -7.7934  -6.6099  -6.4768  -6.1708  -6.0653

          k =-0.5303 0.5518 0.0000 ( 18128 PWs)   bands (ev):

   -24.3263 -23.9786 -23.8646 -23.5222 -12.2669 -12.2199 -11.6786 -11.5464
    -9.4421  -8.6055  -8.3165  -7.8992  -6.5283  -6.4218  -6.1683  -6.0956

          k =-0.4843-0.3070 0.0000 ( 18166 PWs)   bands (ev):

   -24.3330 -24.0029 -23.8564 -23.4974 -12.1484 -12.0107 -11.9776 -11.6546
    -9.2762  -8.6821  -8.1991  -8.0810  -6.3920  -6.3070  -6.2431  -6.2237

     highest occupied level (ev):    -6.0567

!    total energy              =    -176.32037811 Ry

     total all-electron energy =      -611.707923 Ry
     estimated scf accuracy    <          2.0E-13 Ry

     The total energy is the sum of the following terms:
     one-electron contribution =    -670.75783304 Ry
     hartree contribution      =     343.36772040 Ry
     xc contribution           =     -35.63089854 Ry
     ewald contribution        =     225.05147481 Ry
     one-center paw contrib.   =     -38.35084173 Ry

     convergence has been achieved in  11 iterations

     negative rho (up, down):  4.857E-04 0.000E+00

     Forces acting on atoms (cartesian axes, Ry/au):

     atom    1 type  1   force =     0.00037641   -0.00062570    0.00034370
     atom    2 type  1   force =     0.00058481    0.00033103   -0.00031385
     atom    3 type  1   force =    -0.00028433   -0.00093933   -0.00050282
     atom    4 type  1   force =     0.00090334   -0.00005756   -0.00050472
     atom    5 type  1   force =     0.00130984   -0.00138021   -0.00037587
     atom    6 type  1   force =    -0.00119375   -0.00023893   -0.00071369
     atom    7 type  1   force =     0.00153110   -0.00047698    0.00180666
     atom    8 type  1   force =     0.00194133    0.00023306   -0.00058330
     atom    9 type  2   force =    -0.00150383    0.00213290    0.00022243
     atom   10 type  2   force =    -0.00054360    0.00143010    0.00009490
     atom   11 type  2   force =    -0.00102730   -0.00089018    0.00084094
     atom   12 type  2   force =    -0.00209402    0.00048180   -0.00031438

     Total force =     0.005977     Total SCF correction =     0.000001
     Energy error            =      7.1E-05 Ry
     Gradient error          =      2.1E-03 Ry/Bohr

     number of scf cycles    =  37
     number of bfgs steps    =  35

     energy             old  =    -176.3203073695 Ry
     energy             new  =    -176.3203781137 Ry

     CASE: energy            _new < energy            _old

     new trust radius        =       0.0143602469 bohr
     new conv_thr            =            1.0E-12 Ry


ATOMIC_POSITIONS (angstrom)
H             4.4530446140        3.6915043379       11.1972068483
H             5.3094596475        4.2709545497        9.9993254826
H             3.3323179857        1.2184247598        8.1057293622
H             3.1500914029        2.8887001984        9.3412988854
H             4.0045474445        3.4884660803        8.1502494648
H             6.3679557778        4.0391177693        8.1074223716
H             2.9778486945        1.7616464161       11.2242806294
H             2.0990720052        3.1288247694       11.2350445087
O             5.2769853708        4.2182460695       10.9991502055
O             3.1949701306        2.9373675740        8.3409961387
O             5.4603601829        4.4275684160        8.2653246246
O             3.0087331943        2.7472858178       11.0736575561



     Writing config-only to output data dir ./output/f-BH.save/
     NEW-OLD atomic charge density approx. for the potential

     negative rho (up, down):  4.857E-04 0.000E+00

     total cpu time spent up to now is     2956.4 secs

     per-process dynamical memory:   210.2 Mb

     Self-consistent Calculation

     iteration #  1     ecut=    60.00 Ry     beta= 0.70
     Davidson diagonalization with overlap
     ethr =  1.00E-06,  avg # of iterations =  4.0

     negative rho (up, down):  4.858E-04 0.000E+00

     total cpu time spent up to now is     2964.2 secs

     total energy              =    -176.32042088 Ry
     estimated scf accuracy    <       0.00005548 Ry

     iteration #  2     ecut=    60.00 Ry     beta= 0.70
     Davidson diagonalization with overlap
     ethr =  1.73E-07,  avg # of iterations =  2.0

     negative rho (up, down):  4.858E-04 0.000E+00

     total cpu time spent up to now is     2969.4 secs

     total energy              =    -176.32042786 Ry
     estimated scf accuracy    <       0.00000457 Ry

     iteration #  3     ecut=    60.00 Ry     beta= 0.70
     Davidson diagonalization with overlap
     ethr =  1.43E-08,  avg # of iterations =  2.9

     negative rho (up, down):  4.857E-04 0.000E+00

     total cpu time spent up to now is     2975.2 secs

     total energy              =    -176.32042885 Ry
     estimated scf accuracy    <       0.00000115 Ry

     iteration #  4     ecut=    60.00 Ry     beta= 0.70
     Davidson diagonalization with overlap
     ethr =  3.58E-09,  avg # of iterations =  2.6

     negative rho (up, down):  4.857E-04 0.000E+00

     total cpu time spent up to now is     2980.6 secs

     total energy              =    -176.32042909 Ry
     estimated scf accuracy    <       0.00000005 Ry

     iteration #  5     ecut=    60.00 Ry     beta= 0.70
     Davidson diagonalization with overlap
     ethr =  1.53E-10,  avg # of iterations =  3.0

     negative rho (up, down):  4.857E-04 0.000E+00

     total cpu time spent up to now is     2986.6 secs

     total energy              =    -176.32042910 Ry
     estimated scf accuracy    <       0.00000002 Ry

     iteration #  6     ecut=    60.00 Ry     beta= 0.70
     Davidson diagonalization with overlap
     ethr =  5.21E-11,  avg # of iterations =  2.0

     negative rho (up, down):  4.857E-04 0.000E+00

     total cpu time spent up to now is     2991.8 secs

     total energy              =    -176.32042910 Ry
     estimated scf accuracy    <          1.5E-09 Ry

     iteration #  7     ecut=    60.00 Ry     beta= 0.70
     Davidson diagonalization with overlap
     ethr =  4.83E-12,  avg # of iterations =  3.2

     negative rho (up, down):  4.857E-04 0.000E+00

     total cpu time spent up to now is     2998.3 secs

     total energy              =    -176.32042910 Ry
     estimated scf accuracy    <          7.2E-10 Ry

     iteration #  8     ecut=    60.00 Ry     beta= 0.70
     Davidson diagonalization with overlap
     ethr =  2.24E-12,  avg # of iterations =  2.0

     negative rho (up, down):  4.857E-04 0.000E+00

     total cpu time spent up to now is     3003.6 secs

     total energy              =    -176.32042910 Ry
     estimated scf accuracy    <          2.1E-11 Ry

     iteration #  9     ecut=    60.00 Ry     beta= 0.70
     Davidson diagonalization with overlap
     ethr =  1.00E-13,  avg # of iterations =  3.7

     negative rho (up, down):  4.857E-04 0.000E+00

     total cpu time spent up to now is     3010.3 secs

     total energy              =    -176.32042910 Ry
     estimated scf accuracy    <          9.7E-12 Ry

     iteration # 10     ecut=    60.00 Ry     beta= 0.70
     Davidson diagonalization with overlap
     ethr =  1.00E-13,  avg # of iterations =  1.2

     negative rho (up, down):  4.857E-04 0.000E+00

     total cpu time spent up to now is     3014.6 secs

     total energy              =    -176.32042910 Ry
     estimated scf accuracy    <          1.6E-12 Ry

     iteration # 11     ecut=    60.00 Ry     beta= 0.70
     Davidson diagonalization with overlap
     ethr =  1.00E-13,  avg # of iterations =  1.0

     negative rho (up, down):  4.857E-04 0.000E+00

     total cpu time spent up to now is     3018.7 secs

     End of self-consistent calculation

          k = 0.0000 0.0000 0.0000 ( 18047 PWs)   bands (ev):

   -24.6972 -24.2610 -23.4793 -23.1094 -12.0677 -11.9662 -11.9393 -11.8742
   -10.1546  -9.0177  -7.5744  -7.0686  -6.4949  -6.4269  -6.3643  -6.1947

          k =-0.0153 0.2863 0.0000 ( 18132 PWs)   bands (ev):

   -24.5610 -24.1301 -23.6500 -23.2736 -12.2144 -12.1582 -11.7226 -11.6138
    -9.9336  -8.9500  -7.7695  -7.3984  -6.5826  -6.4713  -6.2513  -6.1184

          k = 0.0307-0.5725 0.0000 ( 18166 PWs)   bands (ev):

   -24.3360 -23.9512 -23.8663 -23.5278 -12.2784 -12.2607 -11.5776 -11.4565
    -9.6352  -8.8542  -8.0123  -7.7898  -6.6352  -6.4613  -6.1614  -6.0510

          k = 0.2575-0.1328 0.0000 ( 18109 PWs)   bands (ev):

   -24.5564 -24.1265 -23.6542 -23.2778 -12.2406 -12.1644 -11.6889 -11.6417
    -9.9101  -8.9393  -7.7741  -7.3971  -6.5615  -6.4847  -6.2502  -6.1280

          k = 0.2421 0.1535 0.0000 ( 18132 PWs)   bands (ev):

   -24.5612 -24.1402 -23.6476 -23.2631 -12.1111 -12.0086 -11.9453 -11.7530
    -9.8196  -8.8403  -7.9398  -7.4419  -6.4269  -6.3721  -6.2881  -6.2317

          k = 0.2882-0.7053 0.0000 ( 18147 PWs)   bands (ev):

   -24.3358 -23.9789 -23.8564 -23.5076 -12.2389 -12.2167 -11.6967 -11.5351
    -9.4628  -8.6155  -8.3062  -7.8909  -6.5435  -6.4107  -6.1598  -6.0867

          k = 0.2728-0.4190 0.0000 ( 18128 PWs)   bands (ev):

   -24.3263 -23.9565 -23.8614 -23.5373 -12.3140 -12.2724 -11.5493 -11.4685
    -9.5856  -8.8000  -8.0409  -7.8593  -6.5998  -6.4778  -6.1334  -6.0632

          k =-0.5150 0.2656 0.0000 ( 18184 PWs)   bands (ev):

   -24.3154 -23.9635 -23.8551 -23.5478 -12.3288 -12.2577 -11.5550 -11.4854
    -9.5866  -8.8208  -8.0283  -7.7961  -6.6070  -6.4734  -6.1632  -6.0589

          k =-0.5303 0.5518 0.0000 ( 18128 PWs)   bands (ev):

   -24.3255 -23.9828 -23.8540 -23.5166 -12.2636 -12.2192 -11.6829 -11.5462
    -9.4345  -8.6011  -8.3160  -7.8974  -6.5242  -6.4189  -6.1632  -6.0916

          k =-0.4843-0.3070 0.0000 ( 18166 PWs)   bands (ev):

   -24.3339 -24.0063 -23.8458 -23.4903 -12.1540 -12.0052 -11.9825 -11.6499
    -9.2695  -8.6928  -8.1805  -8.0786  -6.3828  -6.3024  -6.2438  -6.2244

     highest occupied level (ev):    -6.0510

!    total energy              =    -176.32042910 Ry

     total all-electron energy =      -611.707974 Ry
     estimated scf accuracy    <          1.1E-13 Ry

     The total energy is the sum of the following terms:
     one-electron contribution =    -670.88925558 Ry
     hartree contribution      =     343.43707315 Ry
     xc contribution           =     -35.63162811 Ry
     ewald contribution        =     225.11419212 Ry
     one-center paw contrib.   =     -38.35081067 Ry

     convergence has been achieved in  11 iterations

     negative rho (up, down):  4.857E-04 0.000E+00

     Forces acting on atoms (cartesian axes, Ry/au):

     atom    1 type  1   force =    -0.00018384   -0.00081708    0.00057876
     atom    2 type  1   force =     0.00084802    0.00046973   -0.00082721
     atom    3 type  1   force =     0.00007171   -0.00170678   -0.00029433
     atom    4 type  1   force =     0.00039474   -0.00019804   -0.00005067
     atom    5 type  1   force =     0.00147655   -0.00110674   -0.00089241
     atom    6 type  1   force =    -0.00178822    0.00028415   -0.00038927
     atom    7 type  1   force =     0.00044937    0.00072514    0.00157113
     atom    8 type  1   force =     0.00031405    0.00002907    0.00000485
     atom    9 type  2   force =    -0.00164668    0.00197109    0.00073934
     atom   10 type  2   force =    -0.00010055    0.00136699   -0.00006940
     atom   11 type  2   force =    -0.00093913   -0.00055846    0.00040069
     atom   12 type  2   force =     0.00110397   -0.00045907   -0.00077148

     Total force =     0.005403     Total SCF correction =     0.000000
     Energy error            =      5.1E-05 Ry
     Gradient error          =      2.0E-03 Ry/Bohr

     number of scf cycles    =  38
     number of bfgs steps    =  36

     energy             old  =    -176.3203781137 Ry
     energy             new  =    -176.3204291036 Ry

     CASE: energy            _new < energy            _old

     new trust radius        =       0.0149591525 bohr
     new conv_thr            =            1.0E-12 Ry


ATOMIC_POSITIONS (angstrom)
H             4.4570120049        3.6967572682       11.1973041811
H             5.3108903056        4.2741154459        9.9966100116
H             3.3282671672        1.2133697745        8.1044125196
H             3.1495959066        2.8861042733        9.3429539028
H             4.0031898652        3.4821937624        8.1515546941
H             6.3654000281        4.0348288491        8.1057847619
H             2.9827810605        1.7644655583       11.2276708803
H             2.1005541336        3.1332560097       11.2336725559
O             5.2788445380        4.2256160838       10.9969388446
O             3.1916367021        2.9348287804        8.3426614025
O             5.4581631222        4.4223784209        8.2653652648
O             3.0090516166        2.7501925314       11.0747570587



     Writing config-only to output data dir ./output/f-BH.save/
     NEW-OLD atomic charge density approx. for the potential

     negative rho (up, down):  4.853E-04 0.000E+00

     total cpu time spent up to now is     3031.3 secs

     per-process dynamical memory:   210.7 Mb

     Self-consistent Calculation

     iteration #  1     ecut=    60.00 Ry     beta= 0.70
     Davidson diagonalization with overlap
     ethr =  1.00E-06,  avg # of iterations =  4.0

     negative rho (up, down):  4.855E-04 0.000E+00

     total cpu time spent up to now is     3039.0 secs

     total energy              =    -176.32047184 Ry
     estimated scf accuracy    <       0.00005681 Ry

     iteration #  2     ecut=    60.00 Ry     beta= 0.70
     Davidson diagonalization with overlap
     ethr =  1.78E-07,  avg # of iterations =  2.0

     negative rho (up, down):  4.855E-04 0.000E+00

     total cpu time spent up to now is     3044.2 secs

     total energy              =    -176.32047918 Ry
     estimated scf accuracy    <       0.00000501 Ry

     iteration #  3     ecut=    60.00 Ry     beta= 0.70
     Davidson diagonalization with overlap
     ethr =  1.56E-08,  avg # of iterations =  3.0

     negative rho (up, down):  4.855E-04 0.000E+00

     total cpu time spent up to now is     3050.2 secs

     total energy              =    -176.32048027 Ry
     estimated scf accuracy    <       0.00000146 Ry

     iteration #  4     ecut=    60.00 Ry     beta= 0.70
     Davidson diagonalization with overlap
     ethr =  4.56E-09,  avg # of iterations =  3.0

     negative rho (up, down):  4.854E-04 0.000E+00

     total cpu time spent up to now is     3055.6 secs

     total energy              =    -176.32048056 Ry
     estimated scf accuracy    <       0.00000005 Ry

     iteration #  5     ecut=    60.00 Ry     beta= 0.70
     Davidson diagonalization with overlap
     ethr =  1.59E-10,  avg # of iterations =  3.1

     negative rho (up, down):  4.854E-04 0.000E+00

     total cpu time spent up to now is     3061.7 secs

     total energy              =    -176.32048058 Ry
     estimated scf accuracy    <       0.00000002 Ry

     iteration #  6     ecut=    60.00 Ry     beta= 0.70
     Davidson diagonalization with overlap
     ethr =  6.40E-11,  avg # of iterations =  2.0

     negative rho (up, down):  4.854E-04 0.000E+00

     total cpu time spent up to now is     3066.9 secs

     total energy              =    -176.32048058 Ry
     estimated scf accuracy    <          2.1E-09 Ry

     iteration #  7     ecut=    60.00 Ry     beta= 0.70
     Davidson diagonalization with overlap
     ethr =  6.50E-12,  avg # of iterations =  3.0

     negative rho (up, down):  4.854E-04 0.000E+00

     total cpu time spent up to now is     3073.1 secs

     total energy              =    -176.32048058 Ry
     estimated scf accuracy    <          4.0E-10 Ry

     iteration #  8     ecut=    60.00 Ry     beta= 0.70
     Davidson diagonalization with overlap
     ethr =  1.24E-12,  avg # of iterations =  2.0

     negative rho (up, down):  4.854E-04 0.000E+00

     total cpu time spent up to now is     3078.4 secs

     total energy              =    -176.32048058 Ry
     estimated scf accuracy    <          2.1E-11 Ry

     iteration #  9     ecut=    60.00 Ry     beta= 0.70
     Davidson diagonalization with overlap
     ethr =  1.00E-13,  avg # of iterations =  3.0

     negative rho (up, down):  4.854E-04 0.000E+00

     total cpu time spent up to now is     3084.5 secs

     total energy              =    -176.32048058 Ry
     estimated scf accuracy    <          5.3E-12 Ry

     iteration # 10     ecut=    60.00 Ry     beta= 0.70
     Davidson diagonalization with overlap
     ethr =  1.00E-13,  avg # of iterations =  1.0

     negative rho (up, down):  4.854E-04 0.000E+00

     total cpu time spent up to now is     3088.6 secs

     End of self-consistent calculation

          k = 0.0000 0.0000 0.0000 ( 18047 PWs)   bands (ev):

   -24.6942 -24.2561 -23.4777 -23.1054 -12.0729 -11.9589 -11.9337 -11.8769
   -10.1494  -9.0150  -7.5724  -7.0619  -6.4883  -6.4239  -6.3607  -6.1904

          k =-0.0153 0.2863 0.0000 ( 18132 PWs)   bands (ev):

   -24.5580 -24.1253 -23.6483 -23.2694 -12.2140 -12.1574 -11.7204 -11.6153
    -9.9252  -8.9446  -7.7690  -7.3934  -6.5780  -6.4688  -6.2452  -6.1137

          k = 0.0307-0.5725 0.0000 ( 18166 PWs)   bands (ev):

   -24.3327 -23.9491 -23.8621 -23.5237 -12.2777 -12.2600 -11.5778 -11.4591
    -9.6222  -8.8445  -8.0130  -7.7895  -6.6305  -6.4592  -6.1543  -6.0462

          k = 0.2575-0.1328 0.0000 ( 18109 PWs)   bands (ev):

   -24.5534 -24.1216 -23.6525 -23.2737 -12.2363 -12.1629 -11.6911 -11.6421
    -9.9046  -8.9349  -7.7719  -7.3915  -6.5590  -6.4798  -6.2440  -6.1225

          k = 0.2421 0.1535 0.0000 ( 18132 PWs)   bands (ev):

   -24.5586 -24.1356 -23.6454 -23.2587 -12.1166 -12.0013 -11.9500 -11.7466
    -9.8141  -8.8379  -7.9356  -7.4347  -6.4212  -6.3685  -6.2843  -6.2286

          k = 0.2882-0.7053 0.0000 ( 18147 PWs)   bands (ev):

   -24.3334 -23.9758 -23.8526 -23.5030 -12.2413 -12.2146 -11.6976 -11.5335
    -9.4530  -8.6086  -8.3050  -7.8867  -6.5387  -6.4090  -6.1538  -6.0826

          k = 0.2728-0.4190 0.0000 ( 18128 PWs)   bands (ev):

   -24.3230 -23.9544 -23.8569 -23.5334 -12.3098 -12.2718 -11.5519 -11.4708
    -9.5765  -8.7910  -8.0420  -7.8553  -6.5965  -6.4747  -6.1260  -6.0581

          k =-0.5150 0.2656 0.0000 ( 18184 PWs)   bands (ev):

   -24.3121 -23.9617 -23.8501 -23.5443 -12.3226 -12.2562 -11.5598 -11.4870
    -9.5811  -8.8135  -8.0263  -7.7920  -6.6045  -6.4695  -6.1557  -6.0529

          k =-0.5303 0.5518 0.0000 ( 18128 PWs)   bands (ev):

   -24.3232 -23.9798 -23.8498 -23.5122 -12.2610 -12.2182 -11.6866 -11.5447
    -9.4291  -8.5967  -8.3116  -7.8913  -6.5209  -6.4158  -6.1568  -6.0871

          k =-0.4843-0.3070 0.0000 ( 18166 PWs)   bands (ev):

   -24.3326 -24.0026 -23.8419 -23.4852 -12.1595 -11.9990 -11.9872 -11.6439
    -9.2634  -8.6963  -8.1670  -8.0731  -6.3760  -6.3002  -6.2405  -6.2218

     highest occupied level (ev):    -6.0462

!    total energy              =    -176.32048058 Ry

     total all-electron energy =      -611.708025 Ry
     estimated scf accuracy    <          3.8E-14 Ry

     The total energy is the sum of the following terms:
     one-electron contribution =    -671.02572002 Ry
     hartree contribution      =     343.50997932 Ry
     xc contribution           =     -35.63284667 Ry
     ewald contribution        =     225.17888408 Ry
     one-center paw contrib.   =     -38.35077728 Ry

     convergence has been achieved in  10 iterations

     negative rho (up, down):  4.854E-04 0.000E+00

     Forces acting on atoms (cartesian axes, Ry/au):

     atom    1 type  1   force =    -0.00045661   -0.00060278    0.00050406
     atom    2 type  1   force =     0.00073540    0.00056033   -0.00065628
     atom    3 type  1   force =     0.00012290   -0.00219109   -0.00010760
     atom    4 type  1   force =    -0.00001465   -0.00021760    0.00038844
     atom    5 type  1   force =     0.00169267   -0.00058944   -0.00127304
     atom    6 type  1   force =    -0.00106015    0.00010029   -0.00024151
     atom    7 type  1   force =    -0.00064894    0.00116198    0.00131471
     atom    8 type  1   force =    -0.00072277   -0.00027938    0.00049320
     atom    9 type  2   force =    -0.00149860    0.00131414    0.00093309
     atom   10 type  2   force =     0.00003401    0.00065274   -0.00036733
     atom   11 type  2   force =    -0.00162950    0.00048225    0.00009040
     atom   12 type  2   force =     0.00344623   -0.00039144   -0.00107815

     Total force =     0.006245     Total SCF correction =     0.000000
     Energy error            =      5.1E-05 Ry
     Gradient error          =      3.4E-03 Ry/Bohr

     number of scf cycles    =  39
     number of bfgs steps    =  37

     energy             old  =    -176.3204291036 Ry
     energy             new  =    -176.3204805789 Ry

     CASE: energy            _new < energy            _old

     new trust radius        =       0.0190108245 bohr
     new conv_thr            =            1.0E-12 Ry


ATOMIC_POSITIONS (angstrom)
H             4.4612827293        3.7025163030       11.1975160403
H             5.3132564222        4.2786866610        9.9931332484
H             3.3232499141        1.2056698181        8.1030515476
H             3.1490295983        2.8829888822        9.3453710501
H             4.0024158639        3.4743223002        8.1522585342
H             6.3614319410        4.0292198252        8.1031872858
H             2.9880068736        1.7689532869       11.2324405970
H             2.1036623029        3.1385582691       11.2321933848
O             5.2798878607        4.2352272249       10.9941562276
O             3.1877738727        2.9319119170        8.3448508735
O             5.4539676134        4.4154069458        8.2657038236
O             3.0114214588        2.7546453245       11.0758234649



     Writing config-only to output data dir ./output/f-BH.save/
     NEW-OLD atomic charge density approx. for the potential

     negative rho (up, down):  4.844E-04 0.000E+00

     total cpu time spent up to now is     3101.3 secs

     per-process dynamical memory:   210.2 Mb

     Self-consistent Calculation

     iteration #  1     ecut=    60.00 Ry     beta= 0.70
     Davidson diagonalization with overlap
     ethr =  1.00E-06,  avg # of iterations =  4.1

     negative rho (up, down):  4.848E-04 0.000E+00

     total cpu time spent up to now is     3109.8 secs

     total energy              =    -176.32052549 Ry
     estimated scf accuracy    <       0.00010335 Ry

     iteration #  2     ecut=    60.00 Ry     beta= 0.70
     Davidson diagonalization with overlap
     ethr =  3.23E-07,  avg # of iterations =  2.0

     negative rho (up, down):  4.849E-04 0.000E+00

     total cpu time spent up to now is     3115.0 secs

     total energy              =    -176.32053807 Ry
     estimated scf accuracy    <       0.00000899 Ry

     iteration #  3     ecut=    60.00 Ry     beta= 0.70
     Davidson diagonalization with overlap
     ethr =  2.81E-08,  avg # of iterations =  2.9

     negative rho (up, down):  4.849E-04 0.000E+00

     total cpu time spent up to now is     3121.1 secs

     total energy              =    -176.32053987 Ry
     estimated scf accuracy    <       0.00000328 Ry

     iteration #  4     ecut=    60.00 Ry     beta= 0.70
     Davidson diagonalization with overlap
     ethr =  1.02E-08,  avg # of iterations =  2.6

     negative rho (up, down):  4.849E-04 0.000E+00

     total cpu time spent up to now is     3126.4 secs

     total energy              =    -176.32054052 Ry
     estimated scf accuracy    <       0.00000008 Ry

     iteration #  5     ecut=    60.00 Ry     beta= 0.70
     Davidson diagonalization with overlap
     ethr =  2.53E-10,  avg # of iterations =  4.2

     negative rho (up, down):  4.849E-04 0.000E+00

     total cpu time spent up to now is     3133.1 secs

     total energy              =    -176.32054054 Ry
     estimated scf accuracy    <       0.00000007 Ry

     iteration #  6     ecut=    60.00 Ry     beta= 0.70
     Davidson diagonalization with overlap
     ethr =  2.34E-10,  avg # of iterations =  2.1

     negative rho (up, down):  4.849E-04 0.000E+00

     total cpu time spent up to now is     3138.5 secs

     total energy              =    -176.32054055 Ry
     estimated scf accuracy    <          1.5E-09 Ry

     iteration #  7     ecut=    60.00 Ry     beta= 0.70
     Davidson diagonalization with overlap
     ethr =  4.81E-12,  avg # of iterations =  5.1

     negative rho (up, down):  4.849E-04 0.000E+00

     total cpu time spent up to now is     3146.5 secs

     total energy              =    -176.32054055 Ry
     estimated scf accuracy    <          4.5E-09 Ry

     iteration #  8     ecut=    60.00 Ry     beta= 0.70
     Davidson diagonalization with overlap
     ethr =  4.81E-12,  avg # of iterations =  3.0

     negative rho (up, down):  4.849E-04 0.000E+00

     total cpu time spent up to now is     3152.7 secs

     total energy              =    -176.32054056 Ry
     estimated scf accuracy    <          6.2E-11 Ry

     iteration #  9     ecut=    60.00 Ry     beta= 0.70
     Davidson diagonalization with overlap
     ethr =  1.94E-13,  avg # of iterations =  4.0

     negative rho (up, down):  4.849E-04 0.000E+00

     total cpu time spent up to now is     3159.8 secs

     total energy              =    -176.32054056 Ry
     estimated scf accuracy    <          2.5E-11 Ry

     iteration # 10     ecut=    60.00 Ry     beta= 0.70
     Davidson diagonalization with overlap
     ethr =  1.00E-13,  avg # of iterations =  1.0

     negative rho (up, down):  4.849E-04 0.000E+00

     total cpu time spent up to now is     3164.0 secs

     total energy              =    -176.32054056 Ry
     estimated scf accuracy    <          1.2E-11 Ry

     iteration # 11     ecut=    60.00 Ry     beta= 0.70
     Davidson diagonalization with overlap
     ethr =  1.00E-13,  avg # of iterations =  1.0

     negative rho (up, down):  4.849E-04 0.000E+00

     total cpu time spent up to now is     3168.2 secs

     total energy              =    -176.32054056 Ry
     estimated scf accuracy    <          2.4E-12 Ry

     iteration # 12     ecut=    60.00 Ry     beta= 0.70
     Davidson diagonalization with overlap
     ethr =  1.00E-13,  avg # of iterations =  1.0

     negative rho (up, down):  4.849E-04 0.000E+00

     total cpu time spent up to now is     3172.3 secs

     End of self-consistent calculation

          k = 0.0000 0.0000 0.0000 ( 18047 PWs)   bands (ev):

   -24.6872 -24.2459 -23.4744 -23.0979 -12.0717 -11.9484 -11.9248 -11.8727
   -10.1445  -9.0094  -7.5700  -7.0514  -6.4755  -6.4233  -6.3507  -6.1865

          k =-0.0153 0.2863 0.0000 ( 18132 PWs)   bands (ev):

   -24.5510 -24.1147 -23.6453 -23.2619 -12.2073 -12.1509 -11.7151 -11.6130
    -9.9178  -8.9372  -7.7652  -7.3827  -6.5719  -6.4626  -6.2373  -6.1085

          k = 0.0307-0.5725 0.0000 ( 18166 PWs)   bands (ev):

   -24.3251 -23.9358 -23.8617 -23.5167 -12.2705 -12.2532 -11.5757 -11.4584
    -9.6125  -8.8341  -8.0073  -7.7812  -6.6251  -6.4543  -6.1461  -6.0402

          k = 0.2575-0.1328 0.0000 ( 18109 PWs)   bands (ev):

   -24.5467 -24.1111 -23.6492 -23.2660 -12.2272 -12.1566 -11.6889 -11.6381
    -9.9002  -8.9291  -7.7669  -7.3798  -6.5550  -6.4713  -6.2359  -6.1162

          k = 0.2421 0.1535 0.0000 ( 18132 PWs)   bands (ev):

   -24.5517 -24.1246 -23.6426 -23.2514 -12.1156 -11.9907 -11.9487 -11.7360
    -9.8085  -8.8316  -7.9316  -7.4249  -6.4183  -6.3582  -6.2742  -6.2262

          k = 0.2882-0.7053 0.0000 ( 18147 PWs)   bands (ev):

   -24.3262 -23.9609 -23.8534 -23.4960 -12.2370 -12.2070 -11.6952 -11.5281
    -9.4451  -8.5997  -8.2996  -7.8778  -6.5334  -6.4050  -6.1452  -6.0763

          k = 0.2728-0.4190 0.0000 ( 18128 PWs)   bands (ev):

   -24.3160 -23.9415 -23.8560 -23.5258 -12.3003 -12.2659 -11.5512 -11.4694
    -9.5705  -8.7828  -8.0361  -7.8424  -6.5931  -6.4686  -6.1169  -6.0517

          k =-0.5150 0.2656 0.0000 ( 18184 PWs)   bands (ev):

   -24.3057 -23.9491 -23.8486 -23.5361 -12.3119 -12.2501 -11.5605 -11.4847
    -9.5785  -8.8079  -8.0179  -7.7778  -6.6012  -6.4632  -6.1466  -6.0451

          k =-0.5303 0.5518 0.0000 ( 18128 PWs)   bands (ev):

   -24.3166 -23.9650 -23.8503 -23.5047 -12.2537 -12.2117 -11.6859 -11.5387
    -9.4254  -8.5911  -8.3035  -7.8792  -6.5173  -6.4106  -6.1474  -6.0799

          k =-0.4843-0.3070 0.0000 ( 18166 PWs)   bands (ev):

   -24.3258 -23.9867 -23.8432 -23.4784 -12.1584 -11.9891 -11.9861 -11.6336
    -9.2572  -8.6905  -8.1615  -8.0629  -6.3719  -6.2992  -6.2301  -6.2125

     highest occupied level (ev):    -6.0402

!    total energy              =    -176.32054056 Ry

     total all-electron energy =      -611.708085 Ry
     estimated scf accuracy    <          1.8E-14 Ry

     The total energy is the sum of the following terms:
     one-electron contribution =    -671.20702796 Ry
     hartree contribution      =     343.60855503 Ry
     xc contribution           =     -35.63332918 Ry
     ewald contribution        =     225.26201929 Ry
     one-center paw contrib.   =     -38.35075773 Ry

     convergence has been achieved in  12 iterations

     negative rho (up, down):  4.849E-04 0.000E+00

     Forces acting on atoms (cartesian axes, Ry/au):

     atom    1 type  1   force =    -0.00057762   -0.00012268    0.00005896
     atom    2 type  1   force =     0.00020731    0.00048821   -0.00007598
     atom    3 type  1   force =    -0.00012585   -0.00151605   -0.00005415
     atom    4 type  1   force =    -0.00027214   -0.00007873    0.00042373
     atom    5 type  1   force =     0.00121193   -0.00031734   -0.00127931
     atom    6 type  1   force =    -0.00094250   -0.00007186    0.00021836
     atom    7 type  1   force =    -0.00140239    0.00155574    0.00080352
     atom    8 type  1   force =    -0.00146403   -0.00024946    0.00091642
     atom    9 type  2   force =    -0.00085756    0.00049243    0.00124868
     atom   10 type  2   force =     0.00047471    0.00000191   -0.00077165
     atom   11 type  2   force =    -0.00104820    0.00045916   -0.00046112
     atom   12 type  2   force =     0.00479634   -0.00064133   -0.00102744

     Total force =     0.006693     Total SCF correction =     0.000000
     Energy error            =      6.0E-05 Ry
     Gradient error          =      4.8E-03 Ry/Bohr

     number of scf cycles    =  40
     number of bfgs steps    =  38

     energy             old  =    -176.3204805789 Ry
     energy             new  =    -176.3205405551 Ry

     CASE: energy            _new < energy            _old

     new trust radius        =       0.0182774149 bohr
     new conv_thr            =            1.0E-12 Ry


ATOMIC_POSITIONS (angstrom)
H             4.4637818683        3.7074752043       11.1974973853
H             5.3154005075        4.2836693184        9.9904254066
H             3.3176640518        1.1978804118        8.1017589881
H             3.1486312583        2.8795364108        9.3473662553
H             4.0026590056        3.4672856981        8.1527226911
H             6.3567862861        4.0244223821        8.1010264808
H             2.9924546799        1.7744595555       11.2367597112
H             2.1073240190        3.1427562924       11.2309880949
O             5.2798775602        4.2436917071       10.9922165029
O             3.1854156636        2.9290262156        8.3465514216
O             5.4493586223        4.4084256175        8.2658231721
O             3.0160329282        2.7594779445       11.0765499680



     Writing config-only to output data dir ./output/f-BH.save/
     NEW-OLD atomic charge density approx. for the potential

     negative rho (up, down):  4.840E-04 0.000E+00

     total cpu time spent up to now is     3185.0 secs

     per-process dynamical memory:   210.2 Mb

     Self-consistent Calculation

     iteration #  1     ecut=    60.00 Ry     beta= 0.70
     Davidson diagonalization with overlap
     ethr =  1.00E-06,  avg # of iterations =  4.0

     negative rho (up, down):  4.843E-04 0.000E+00

     total cpu time spent up to now is     3193.3 secs

     total energy              =    -176.32057547 Ry
     estimated scf accuracy    <       0.00009526 Ry

     iteration #  2     ecut=    60.00 Ry     beta= 0.70
     Davidson diagonalization with overlap
     ethr =  2.98E-07,  avg # of iterations =  2.0

     negative rho (up, down):  4.844E-04 0.000E+00

     total cpu time spent up to now is     3198.6 secs

     total energy              =    -176.32058734 Ry
     estimated scf accuracy    <       0.00001222 Ry

     iteration #  3     ecut=    60.00 Ry     beta= 0.70
     Davidson diagonalization with overlap
     ethr =  3.82E-08,  avg # of iterations =  3.0

     negative rho (up, down):  4.844E-04 0.000E+00

     total cpu time spent up to now is     3204.6 secs

     total energy              =    -176.32059014 Ry
     estimated scf accuracy    <       0.00000453 Ry

     iteration #  4     ecut=    60.00 Ry     beta= 0.70
     Davidson diagonalization with overlap
     ethr =  1.41E-08,  avg # of iterations =  2.1

     negative rho (up, down):  4.844E-04 0.000E+00

     total cpu time spent up to now is     3209.6 secs

     total energy              =    -176.32059087 Ry
     estimated scf accuracy    <       0.00000010 Ry

     iteration #  5     ecut=    60.00 Ry     beta= 0.70
     Davidson diagonalization with overlap
     ethr =  3.13E-10,  avg # of iterations =  5.8

     negative rho (up, down):  4.844E-04 0.000E+00

     total cpu time spent up to now is     3217.4 secs

     total energy              =    -176.32059092 Ry
     estimated scf accuracy    <       0.00000026 Ry

     iteration #  6     ecut=    60.00 Ry     beta= 0.70
     Davidson diagonalization with overlap
     ethr =  3.13E-10,  avg # of iterations =  3.0

     negative rho (up, down):  4.844E-04 0.000E+00

     total cpu time spent up to now is     3223.7 secs

     total energy              =    -176.32059097 Ry
     estimated scf accuracy    <          7.7E-10 Ry

     iteration #  7     ecut=    60.00 Ry     beta= 0.70
     Davidson diagonalization with overlap
     ethr =  2.40E-12,  avg # of iterations =  5.3

     negative rho (up, down):  4.844E-04 0.000E+00

     total cpu time spent up to now is     3232.2 secs

     total energy              =    -176.32059097 Ry
     estimated scf accuracy    <          3.7E-09 Ry

     iteration #  8     ecut=    60.00 Ry     beta= 0.70
     Davidson diagonalization with overlap
     ethr =  2.40E-12,  avg # of iterations =  2.4

     negative rho (up, down):  4.844E-04 0.000E+00

     total cpu time spent up to now is     3238.2 secs

     total energy              =    -176.32059097 Ry
     estimated scf accuracy    <          6.7E-10 Ry

     iteration #  9     ecut=    60.00 Ry     beta= 0.70
     Davidson diagonalization with overlap
     ethr =  2.10E-12,  avg # of iterations =  2.0

     negative rho (up, down):  4.844E-04 0.000E+00

     total cpu time spent up to now is     3243.4 secs

     total energy              =    -176.32059097 Ry
     estimated scf accuracy    <          3.3E-11 Ry

     iteration # 10     ecut=    60.00 Ry     beta= 0.70
     Davidson diagonalization with overlap
     ethr =  1.04E-13,  avg # of iterations =  3.9

     negative rho (up, down):  4.844E-04 0.000E+00

     total cpu time spent up to now is     3250.4 secs

     total energy              =    -176.32059097 Ry
     estimated scf accuracy    <          1.4E-11 Ry

     iteration # 11     ecut=    60.00 Ry     beta= 0.70
     Davidson diagonalization with overlap
     ethr =  1.00E-13,  avg # of iterations =  1.0

     negative rho (up, down):  4.844E-04 0.000E+00

     total cpu time spent up to now is     3254.6 secs

     total energy              =    -176.32059097 Ry
     estimated scf accuracy    <          4.8E-12 Ry

     iteration # 12     ecut=    60.00 Ry     beta= 0.70
     Davidson diagonalization with overlap
     ethr =  1.00E-13,  avg # of iterations =  1.1

     negative rho (up, down):  4.844E-04 0.000E+00

     total cpu time spent up to now is     3258.7 secs

     End of self-consistent calculation

          k = 0.0000 0.0000 0.0000 ( 18047 PWs)   bands (ev):

   -24.6812 -24.2370 -23.4726 -23.0922 -12.0671 -11.9400 -11.9164 -11.8665
   -10.1431  -9.0051  -7.5687  -7.0426  -6.4619  -6.4276  -6.3392  -6.1864

          k =-0.0153 0.2863 0.0000 ( 18132 PWs)   bands (ev):

   -24.5449 -24.1052 -23.6439 -23.2562 -12.1989 -12.1446 -11.7093 -11.6089
    -9.9155  -8.9327  -7.7607  -7.3717  -6.5675  -6.4568  -6.2321  -6.1067

          k = 0.0307-0.5725 0.0000 ( 18166 PWs)   bands (ev):

   -24.3184 -23.9184 -23.8679 -23.5116 -12.2596 -12.2489 -11.5724 -11.4553
    -9.6106  -8.8290  -7.9995  -7.7689  -6.6217  -6.4501  -6.1418  -6.0372

          k = 0.2575-0.1328 0.0000 ( 18109 PWs)   bands (ev):

   -24.5411 -24.1019 -23.6473 -23.2597 -12.2184 -12.1507 -11.6837 -11.6334
    -9.9003  -8.9261  -7.7614  -7.3677  -6.5529  -6.4628  -6.2300  -6.1133

          k = 0.2421 0.1535 0.0000 ( 18132 PWs)   bands (ev):

   -24.5452 -24.1138 -23.6425 -23.2465 -12.1111 -11.9811 -11.9450 -11.7258
    -9.8063  -8.8259  -7.9299  -7.4179  -6.4213  -6.3455  -6.2628  -6.2271

          k = 0.2882-0.7053 0.0000 ( 18147 PWs)   bands (ev):

   -24.3189 -23.9410 -23.8620 -23.4920 -12.2297 -12.2002 -11.6913 -11.5213
    -9.4431  -8.5946  -8.2932  -7.8689  -6.5307  -6.4022  -6.1388  -6.0715

          k = 0.2728-0.4190 0.0000 ( 18128 PWs)   bands (ev):

   -24.3105 -23.9247 -23.8616 -23.5193 -12.2907 -12.2604 -11.5480 -11.4660
    -9.5718  -8.7809  -8.0266  -7.8266  -6.5918  -6.4629  -6.1108  -6.0483

          k =-0.5150 0.2656 0.0000 ( 18184 PWs)   bands (ev):

   -24.3015 -23.9326 -23.8540 -23.5280 -12.3023 -12.2446 -11.5579 -11.4809
    -9.5829  -8.8081  -8.0072  -7.7592  -6.5999  -6.4573  -6.1404  -6.0406

          k =-0.5303 0.5518 0.0000 ( 18128 PWs)   bands (ev):

   -24.3105 -23.9452 -23.8587 -23.4995 -12.2461 -12.2051 -11.6825 -11.5313
    -9.4271  -8.5890  -8.2951  -7.8670  -6.5165  -6.4062  -6.1396  -6.0743

          k =-0.4843-0.3070 0.0000 ( 18166 PWs)   bands (ev):

   -24.3178 -23.9657 -23.8529 -23.4754 -12.1540 -11.9843 -11.9777 -11.6229
    -9.2549  -8.6786  -8.1673  -8.0544  -6.3740  -6.3023  -6.2171  -6.2007

     highest occupied level (ev):    -6.0372

!    total energy              =    -176.32059097 Ry

     total all-electron energy =      -611.708136 Ry
     estimated scf accuracy    <          6.9E-14 Ry

     The total energy is the sum of the following terms:
     one-electron contribution =    -671.32801289 Ry
     hartree contribution      =     343.67557091 Ry
     xc contribution           =     -35.63349489 Ry
     ewald contribution        =     225.31610671 Ry
     one-center paw contrib.   =     -38.35076081 Ry

     convergence has been achieved in  12 iterations

     negative rho (up, down):  4.844E-04 0.000E+00

     Forces acting on atoms (cartesian axes, Ry/au):

     atom    1 type  1   force =    -0.00043110    0.00036939   -0.00046631
     atom    2 type  1   force =    -0.00043432    0.00021503    0.00095274
     atom    3 type  1   force =    -0.00030818   -0.00055376   -0.00009833
     atom    4 type  1   force =    -0.00022874    0.00021942    0.00005843
     atom    5 type  1   force =     0.00076464   -0.00014300   -0.00112227
     atom    6 type  1   force =    -0.00008114   -0.00063216    0.00043534
     atom    7 type  1   force =    -0.00143427    0.00099371    0.00041200
     atom    8 type  1   force =    -0.00077733   -0.00011830    0.00096003
     atom    9 type  2   force =     0.00003292   -0.00016446    0.00114952
     atom   10 type  2   force =     0.00040453   -0.00076600   -0.00091808
     atom   11 type  2   force =    -0.00102172    0.00065961   -0.00073760
     atom   12 type  2   force =     0.00351471   -0.00007948   -0.00062547

     Total force =     0.005209     Total SCF correction =     0.000000
     Energy error            =      5.0E-05 Ry
     Gradient error          =      3.5E-03 Ry/Bohr

     number of scf cycles    =  41
     number of bfgs steps    =  39

     energy             old  =    -176.3205405551 Ry
     energy             new  =    -176.3205909712 Ry

     CASE: energy            _new < energy            _old

     new trust radius        =       0.0121683040 bohr
     new conv_thr            =            1.0E-12 Ry


ATOMIC_POSITIONS (angstrom)
H             4.4641359315        3.7103100568       11.1971678031
H             5.3162541988        4.2871758716        9.9898065195
H             3.3135089744        1.1930927170        8.1006291792
H             3.1485261149        2.8771747061        9.3482580927
H             4.0036118348        3.4631390714        8.1524555254
H             6.3538565731        4.0216411236        8.1000062680
H             2.9944471635        1.7787824189       11.2395106903
H             2.1103761058        3.1446510534       11.2305500841
O             5.2794492825        4.2479038462       10.9918480946
O             3.1848041136        2.9266907263        8.3470963340
O             5.4458501099        4.4043911624        8.2657047398
O             3.0205660481        2.7631540043       11.0766527472



     Writing config-only to output data dir ./output/f-BH.save/
     NEW-OLD atomic charge density approx. for the potential

     negative rho (up, down):  4.841E-04 0.000E+00

     total cpu time spent up to now is     3271.5 secs

     per-process dynamical memory:   210.2 Mb

     Self-consistent Calculation

     iteration #  1     ecut=    60.00 Ry     beta= 0.70
     Davidson diagonalization with overlap
     ethr =  1.00E-06,  avg # of iterations =  4.0

     negative rho (up, down):  4.841E-04 0.000E+00

     total cpu time spent up to now is     3279.0 secs

     total energy              =    -176.32061174 Ry
     estimated scf accuracy    <       0.00003928 Ry

     iteration #  2     ecut=    60.00 Ry     beta= 0.70
     Davidson diagonalization with overlap
     ethr =  1.23E-07,  avg # of iterations =  2.3

     negative rho (up, down):  4.843E-04 0.000E+00

     total cpu time spent up to now is     3284.4 secs

     total energy              =    -176.32061900 Ry
     estimated scf accuracy    <       0.00001022 Ry

     iteration #  3     ecut=    60.00 Ry     beta= 0.70
     Davidson diagonalization with overlap
     ethr =  3.19E-08,  avg # of iterations =  2.8

     negative rho (up, down):  4.843E-04 0.000E+00

     total cpu time spent up to now is     3290.2 secs

     total energy              =    -176.32062169 Ry
     estimated scf accuracy    <       0.00000157 Ry

     iteration #  4     ecut=    60.00 Ry     beta= 0.70
     Davidson diagonalization with overlap
     ethr =  4.89E-09,  avg # of iterations =  2.0

     negative rho (up, down):  4.843E-04 0.000E+00

     total cpu time spent up to now is     3295.0 secs

     total energy              =    -176.32062182 Ry
     estimated scf accuracy    <       0.00000009 Ry

     iteration #  5     ecut=    60.00 Ry     beta= 0.70
     Davidson diagonalization with overlap
     ethr =  2.95E-10,  avg # of iterations =  4.2

     negative rho (up, down):  4.843E-04 0.000E+00

     total cpu time spent up to now is     3301.4 secs

     total energy              =    -176.32062187 Ry
     estimated scf accuracy    <       0.00000005 Ry

     iteration #  6     ecut=    60.00 Ry     beta= 0.70
     Davidson diagonalization with overlap
     ethr =  1.59E-10,  avg # of iterations =  2.0

     negative rho (up, down):  4.843E-04 0.000E+00

     total cpu time spent up to now is     3306.5 secs

     total energy              =    -176.32062187 Ry
     estimated scf accuracy    <          5.3E-09 Ry

     iteration #  7     ecut=    60.00 Ry     beta= 0.70
     Davidson diagonalization with overlap
     ethr =  1.64E-11,  avg # of iterations =  3.8

     negative rho (up, down):  4.843E-04 0.000E+00

     total cpu time spent up to now is     3313.3 secs

     total energy              =    -176.32062188 Ry
     estimated scf accuracy    <          2.8E-09 Ry

     iteration #  8     ecut=    60.00 Ry     beta= 0.70
     Davidson diagonalization with overlap
     ethr =  8.90E-12,  avg # of iterations =  2.0

     negative rho (up, down):  4.843E-04 0.000E+00

     total cpu time spent up to now is     3318.3 secs

     total energy              =    -176.32062188 Ry
     estimated scf accuracy    <          2.0E-10 Ry

     iteration #  9     ecut=    60.00 Ry     beta= 0.70
     Davidson diagonalization with overlap
     ethr =  6.31E-13,  avg # of iterations =  3.0

     negative rho (up, down):  4.843E-04 0.000E+00

     total cpu time spent up to now is     3324.9 secs

     total energy              =    -176.32062188 Ry
     estimated scf accuracy    <          1.4E-11 Ry

     iteration # 10     ecut=    60.00 Ry     beta= 0.70
     Davidson diagonalization with overlap
     ethr =  1.00E-13,  avg # of iterations =  2.0

     negative rho (up, down):  4.843E-04 0.000E+00

     total cpu time spent up to now is     3329.9 secs

     total energy              =    -176.32062188 Ry
     estimated scf accuracy    <          5.6E-12 Ry

     iteration # 11     ecut=    60.00 Ry     beta= 0.70
     Davidson diagonalization with overlap
     ethr =  1.00E-13,  avg # of iterations =  1.0

     negative rho (up, down):  4.843E-04 0.000E+00

     total cpu time spent up to now is     3334.1 secs

     total energy              =    -176.32062188 Ry
     estimated scf accuracy    <          2.1E-12 Ry

     iteration # 12     ecut=    60.00 Ry     beta= 0.70
     Davidson diagonalization with overlap
     ethr =  1.00E-13,  avg # of iterations =  1.0

     negative rho (up, down):  4.843E-04 0.000E+00

     total cpu time spent up to now is     3338.2 secs

     End of self-consistent calculation

          k = 0.0000 0.0000 0.0000 ( 18047 PWs)   bands (ev):

   -24.6771 -24.2322 -23.4707 -23.0890 -12.0596 -11.9336 -11.9106 -11.8588
   -10.1454  -9.0049  -7.5681  -7.0384  -6.4528  -6.4322  -6.3314  -6.1884

          k =-0.0153 0.2863 0.0000 ( 18132 PWs)   bands (ev):

   -24.5408 -24.1000 -23.6422 -23.2530 -12.1909 -12.1374 -11.7041 -11.6032
    -9.9180  -8.9334  -7.7571  -7.3647  -6.5652  -6.4539  -6.2300  -6.1077

          k = 0.0307-0.5725 0.0000 ( 18166 PWs)   bands (ev):

   -24.3141 -23.9071 -23.8723 -23.5086 -12.2513 -12.2416 -11.5685 -11.4500
    -9.6148  -8.8309  -7.9926  -7.7588  -6.6203  -6.4485  -6.1408  -6.0373

          k = 0.2575-0.1328 0.0000 ( 18109 PWs)   bands (ev):

   -24.5376 -24.0972 -23.6451 -23.2558 -12.2115 -12.1450 -11.6767 -11.6278
    -9.9038  -8.9273  -7.7578  -7.3607  -6.5523  -6.4576  -6.2268  -6.1134

          k = 0.2421 0.1535 0.0000 ( 18132 PWs)   bands (ev):

   -24.5405 -24.1074 -23.6421 -23.2442 -12.1036 -11.9744 -11.9378 -11.7187
    -9.8079  -8.8245  -7.9301  -7.4158  -6.4254  -6.3365  -6.2551  -6.2295

          k = 0.2882-0.7053 0.0000 ( 18147 PWs)   bands (ev):

   -24.3134 -23.9262 -23.8698 -23.4907 -12.2221 -12.1922 -11.6861 -11.5147
    -9.4462  -8.5957  -8.2882  -7.8635  -6.5298  -6.4015  -6.1355  -6.0696

          k = 0.2728-0.4190 0.0000 ( 18128 PWs)   bands (ev):

   -24.3075 -23.9135 -23.8658 -23.5148 -12.2835 -12.2541 -11.5431 -11.4605
    -9.5773  -8.7846  -8.0190  -7.8153  -6.5916  -6.4601  -6.1079  -6.0482

          k =-0.5150 0.2656 0.0000 ( 18184 PWs)   bands (ev):

   -24.2998 -23.9208 -23.8587 -23.5219 -12.2955 -12.2392 -11.5521 -11.4756
    -9.5897  -8.8124  -7.9992  -7.7467  -6.5996  -6.4543  -6.1373  -6.0395

          k =-0.5303 0.5518 0.0000 ( 18128 PWs)   bands (ev):

   -24.3063 -23.9306 -23.8660 -23.4968 -12.2395 -12.1982 -11.6765 -11.5243
    -9.4318  -8.5911  -8.2896  -7.8606  -6.5168  -6.4044  -6.1348  -6.0717

          k =-0.4843-0.3070 0.0000 ( 18166 PWs)   bands (ev):

   -24.3113 -23.9500 -23.8616 -23.4755 -12.1466 -11.9775 -11.9700 -11.6151
    -9.2566  -8.6685  -8.1777  -8.0516  -6.3771  -6.3071  -6.2076  -6.1920

     highest occupied level (ev):    -6.0373

!    total energy              =    -176.32062188 Ry

     total all-electron energy =      -611.708167 Ry
     estimated scf accuracy    <          3.4E-14 Ry

     The total energy is the sum of the following terms:
     one-electron contribution =    -671.32903126 Ry
     hartree contribution      =     343.67963782 Ry
     xc contribution           =     -35.63279346 Ry
     ewald contribution        =     225.31235232 Ry
     one-center paw contrib.   =     -38.35078730 Ry

     convergence has been achieved in  12 iterations

     negative rho (up, down):  4.843E-04 0.000E+00

     Forces acting on atoms (cartesian axes, Ry/au):

     atom    1 type  1   force =    -0.00032692    0.00051514   -0.00066098
     atom    2 type  1   force =    -0.00076438   -0.00002608    0.00146878
     atom    3 type  1   force =    -0.00033885    0.00043341   -0.00020286
     atom    4 type  1   force =    -0.00002020    0.00045898   -0.00055482
     atom    5 type  1   force =     0.00010709   -0.00031492   -0.00082421
     atom    6 type  1   force =    -0.00024375   -0.00069420    0.00062720
     atom    7 type  1   force =    -0.00080415    0.00040889    0.00013083
     atom    8 type  1   force =     0.00018585    0.00031093    0.00077104
     atom    9 type  2   force =     0.00075217   -0.00024514    0.00105215
     atom   10 type  2   force =     0.00039959   -0.00088889   -0.00082851
     atom   11 type  2   force =    -0.00019582    0.00000829   -0.00089811
     atom   12 type  2   force =     0.00124936    0.00003359   -0.00008052

     Total force =     0.003671     Total SCF correction =     0.000000
     Energy error            =      3.1E-05 Ry
     Gradient error          =      1.5E-03 Ry/Bohr

     number of scf cycles    =  42
     number of bfgs steps    =  40

     energy             old  =    -176.3205909712 Ry
     energy             new  =    -176.3206218757 Ry

     CASE: energy            _new < energy            _old

     new trust radius        =       0.0078898690 bohr
     new conv_thr            =            1.0E-12 Ry


ATOMIC_POSITIONS (angstrom)
H             4.4636264384        3.7121531912       11.1965860253
H             5.3161230418        4.2893257095        9.9906348584
H             3.3105395885        1.1907839836        8.0996447469
H             3.1485808288        2.8758054974        9.3480991385
H             4.0045333353        3.4606583219        8.1518511385
H             6.3519420975        4.0199777310        8.1000693578
H             2.9952345247        1.7817183276       11.2410999588
H             2.1125494555        3.1455474246       11.2307053175
O             5.2794024823        4.2497183843       10.9926792608
O             3.1851199059        2.9247274275        8.3467231853
O             5.4437135447        4.4021937945        8.2650051083
O             3.0240212073        2.7654969650       11.0765879819



     Writing config-only to output data dir ./output/f-BH.save/
     NEW-OLD atomic charge density approx. for the potential

     negative rho (up, down):  4.843E-04 0.000E+00

     total cpu time spent up to now is     3350.9 secs

     per-process dynamical memory:   210.2 Mb

     Self-consistent Calculation

     iteration #  1     ecut=    60.00 Ry     beta= 0.70
     Davidson diagonalization with overlap
     ethr =  1.00E-06,  avg # of iterations =  3.0

     Threshold (ethr) on eigenvalues was too large:
     Diagonalizing with lowered threshold

     Davidson diagonalization with overlap
     ethr =  4.79E-08,  avg # of iterations =  2.0

     negative rho (up, down):  4.843E-04 0.000E+00

     total cpu time spent up to now is     3362.3 secs

     total energy              =    -176.32063988 Ry
     estimated scf accuracy    <       0.00001649 Ry

     iteration #  2     ecut=    60.00 Ry     beta= 0.70
     Davidson diagonalization with overlap
     ethr =  5.15E-08,  avg # of iterations =  2.0

     negative rho (up, down):  4.844E-04 0.000E+00

     total cpu time spent up to now is     3367.7 secs

     total energy              =    -176.32064211 Ry
     estimated scf accuracy    <       0.00000243 Ry

     iteration #  3     ecut=    60.00 Ry     beta= 0.70
     Davidson diagonalization with overlap
     ethr =  7.61E-09,  avg # of iterations =  2.1

     negative rho (up, down):  4.844E-04 0.000E+00

     total cpu time spent up to now is     3373.4 secs

     total energy              =    -176.32064268 Ry
     estimated scf accuracy    <       0.00000053 Ry

     iteration #  4     ecut=    60.00 Ry     beta= 0.70
     Davidson diagonalization with overlap
     ethr =  1.66E-09,  avg # of iterations =  2.1

     negative rho (up, down):  4.844E-04 0.000E+00

     total cpu time spent up to now is     3378.4 secs

     total energy              =    -176.32064275 Ry
     estimated scf accuracy    <       0.00000002 Ry

     iteration #  5     ecut=    60.00 Ry     beta= 0.70
     Davidson diagonalization with overlap
     ethr =  5.70E-11,  avg # of iterations =  3.8

     negative rho (up, down):  4.844E-04 0.000E+00

     total cpu time spent up to now is     3385.2 secs

     total energy              =    -176.32064275 Ry
     estimated scf accuracy    <       0.00000002 Ry

     iteration #  6     ecut=    60.00 Ry     beta= 0.70
     Davidson diagonalization with overlap
     ethr =  5.16E-11,  avg # of iterations =  2.0

     negative rho (up, down):  4.844E-04 0.000E+00

     total cpu time spent up to now is     3390.3 secs

     total energy              =    -176.32064276 Ry
     estimated scf accuracy    <          1.7E-09 Ry

     iteration #  7     ecut=    60.00 Ry     beta= 0.70
     Davidson diagonalization with overlap
     ethr =  5.17E-12,  avg # of iterations =  3.2

     negative rho (up, down):  4.844E-04 0.000E+00

     total cpu time spent up to now is     3397.0 secs

     total energy              =    -176.32064276 Ry
     estimated scf accuracy    <          7.2E-10 Ry

     iteration #  8     ecut=    60.00 Ry     beta= 0.70
     Davidson diagonalization with overlap
     ethr =  2.24E-12,  avg # of iterations =  2.0

     negative rho (up, down):  4.844E-04 0.000E+00

     total cpu time spent up to now is     3402.2 secs

     total energy              =    -176.32064276 Ry
     estimated scf accuracy    <          5.4E-11 Ry

     iteration #  9     ecut=    60.00 Ry     beta= 0.70
     Davidson diagonalization with overlap
     ethr =  1.69E-13,  avg # of iterations =  3.1

     negative rho (up, down):  4.844E-04 0.000E+00

     total cpu time spent up to now is     3408.5 secs

     total energy              =    -176.32064276 Ry
     estimated scf accuracy    <          2.4E-12 Ry

     iteration # 10     ecut=    60.00 Ry     beta= 0.70
     Davidson diagonalization with overlap
     ethr =  1.00E-13,  avg # of iterations =  1.1

     negative rho (up, down):  4.844E-04 0.000E+00

     total cpu time spent up to now is     3412.7 secs

     End of self-consistent calculation

          k = 0.0000 0.0000 0.0000 ( 18047 PWs)   bands (ev):

   -24.6762 -24.2320 -23.4705 -23.0893 -12.0552 -11.9301 -11.9068 -11.8541
   -10.1489  -9.0089  -7.5681  -7.0387  -6.4491  -6.4360  -6.3292  -6.1911

          k =-0.0153 0.2863 0.0000 ( 18132 PWs)   bands (ev):

   -24.5398 -24.0998 -23.6420 -23.2533 -12.1867 -12.1332 -11.7008 -11.5991
    -9.9217  -8.9378  -7.7557  -7.3630  -6.5648  -6.4544  -6.2308  -6.1101

          k = 0.0307-0.5725 0.0000 ( 18166 PWs)   bands (ev):

   -24.3130 -23.9043 -23.8749 -23.5089 -12.2483 -12.2363 -11.5656 -11.4458
    -9.6195  -8.8357  -7.9902  -7.7552  -6.6203  -6.4496  -6.1424  -6.0396

          k = 0.2575-0.1328 0.0000 ( 18109 PWs)   bands (ev):

   -24.5370 -24.0974 -23.6444 -23.2556 -12.2081 -12.1422 -11.6714 -11.6240
    -9.9081  -8.9320  -7.7566  -7.3596  -6.5532  -6.4560  -6.2265  -6.1152

          k = 0.2421 0.1535 0.0000 ( 18132 PWs)   bands (ev):

   -24.5391 -24.1063 -23.6428 -23.2453 -12.0993 -11.9702 -11.9327 -11.7147
    -9.8112  -8.8280  -7.9309  -7.4174  -6.4286  -6.3333  -6.2527  -6.2325

          k = 0.2882-0.7053 0.0000 ( 18147 PWs)   bands (ev):

   -24.3114 -23.9206 -23.8749 -23.4925 -12.2184 -12.1870 -11.6823 -11.5102
    -9.4504  -8.6008  -8.2864  -7.8630  -6.5302  -6.4028  -6.1356  -6.0705

          k = 0.2728-0.4190 0.0000 ( 18128 PWs)   bands (ev):

   -24.3074 -23.9098 -23.8691 -23.5140 -12.2803 -12.2507 -11.5391 -11.4563
    -9.5828  -8.7903  -8.0163  -7.8115  -6.5924  -6.4602  -6.1080  -6.0501

          k =-0.5150 0.2656 0.0000 ( 18184 PWs)   bands (ev):

   -24.3009 -23.9161 -23.8629 -23.5200 -12.2926 -12.2370 -11.5472 -11.4716
    -9.5960  -8.8186  -7.9960  -7.7429  -6.6004  -6.4540  -6.1371  -6.0407

          k =-0.5303 0.5518 0.0000 ( 18128 PWs)   bands (ev):

   -24.3053 -23.9248 -23.8711 -23.4976 -12.2365 -12.1943 -11.6717 -11.5196
    -9.4369  -8.5966  -8.2875  -7.8601  -6.5180  -6.4048  -6.1336  -6.0721

          k =-0.4843-0.3070 0.0000 ( 18166 PWs)   bands (ev):

   -24.3084 -23.9437 -23.8674 -23.4786 -12.1424 -11.9734 -11.9642 -11.6105
    -9.2601  -8.6651  -8.1869  -8.0528  -6.3796  -6.3116  -6.2041  -6.1888

     highest occupied level (ev):    -6.0396

!    total energy              =    -176.32064276 Ry

     total all-electron energy =      -611.708188 Ry
     estimated scf accuracy    <          3.6E-14 Ry

     The total energy is the sum of the following terms:
     one-electron contribution =    -671.21130138 Ry
     hartree contribution      =     343.62100095 Ry
     xc contribution           =     -35.63215665 Ry
     ewald contribution        =     225.25263052 Ry
     one-center paw contrib.   =     -38.35081621 Ry

     convergence has been achieved in  10 iterations

     negative rho (up, down):  4.844E-04 0.000E+00

     Forces acting on atoms (cartesian axes, Ry/au):

     atom    1 type  1   force =    -0.00023819    0.00044221   -0.00044573
     atom    2 type  1   force =    -0.00069065   -0.00009873    0.00161529
     atom    3 type  1   force =    -0.00015345    0.00065272   -0.00025209
     atom    4 type  1   force =     0.00017471    0.00054942   -0.00101650
     atom    5 type  1   force =    -0.00017599   -0.00040256   -0.00069345
     atom    6 type  1   force =    -0.00009986   -0.00066659    0.00051520
     atom    7 type  1   force =    -0.00012107   -0.00015711    0.00001010
     atom    8 type  1   force =     0.00115205    0.00061424    0.00051941
     atom    9 type  2   force =     0.00098422   -0.00018661    0.00073724
     atom   10 type  2   force =     0.00017570   -0.00090691   -0.00055544
     atom   11 type  2   force =    -0.00011959   -0.00010825   -0.00075899
     atom   12 type  2   force =    -0.00088788    0.00026817    0.00032497

     Total force =     0.003621     Total SCF correction =     0.000000
     Energy error            =      2.1E-05 Ry
     Gradient error          =      1.6E-03 Ry/Bohr

     number of scf cycles    =  43
     number of bfgs steps    =  41

     energy             old  =    -176.3206218757 Ry
     energy             new  =    -176.3206427561 Ry

     CASE: energy            _new < energy            _old

     new trust radius        =       0.0076461175 bohr
     new conv_thr            =            1.0E-12 Ry


ATOMIC_POSITIONS (angstrom)
H             4.4633035846        3.7145953536       11.1957991285
H             5.3155563424        4.2914241627        9.9924680631
H             3.3075600769        1.1887888835        8.0982137630
H             3.1486539357        2.8748029277        9.3474046217
H             4.0052876906        3.4574268373        8.1504163030
H             6.3499966823        4.0176425513        8.1005447442
H             2.9958463416        1.7847280474       11.2430421719
H             2.1152157032        3.1471375030       11.2314260490
O             5.2801056264        4.2515428538       10.9942845780
O             3.1852636786        2.9219350661        8.3458505922
O             5.4413529762        4.4001393145        8.2636906308
O             3.0272438123        2.7679432572       11.0765454326



     Writing config-only to output data dir ./output/f-BH.save/
     NEW-OLD atomic charge density approx. for the potential

     negative rho (up, down):  4.845E-04 0.000E+00

     total cpu time spent up to now is     3425.4 secs

     per-process dynamical memory:   210.2 Mb

     Self-consistent Calculation

     iteration #  1     ecut=    60.00 Ry     beta= 0.70
     Davidson diagonalization with overlap
     ethr =  1.00E-06,  avg # of iterations =  3.0

     Threshold (ethr) on eigenvalues was too large:
     Diagonalizing with lowered threshold

     Davidson diagonalization with overlap
     ethr =  5.26E-08,  avg # of iterations =  2.0

     negative rho (up, down):  4.846E-04 0.000E+00

     total cpu time spent up to now is     3436.7 secs

     total energy              =    -176.32066301 Ry
     estimated scf accuracy    <       0.00001832 Ry

     iteration #  2     ecut=    60.00 Ry     beta= 0.70
     Davidson diagonalization with overlap
     ethr =  5.72E-08,  avg # of iterations =  2.0

     negative rho (up, down):  4.847E-04 0.000E+00

     total cpu time spent up to now is     3442.0 secs

     total energy              =    -176.32066532 Ry
     estimated scf accuracy    <       0.00000165 Ry

     iteration #  3     ecut=    60.00 Ry     beta= 0.70
     Davidson diagonalization with overlap
     ethr =  5.16E-09,  avg # of iterations =  2.2

     negative rho (up, down):  4.847E-04 0.000E+00

     total cpu time spent up to now is     3447.6 secs

     total energy              =    -176.32066563 Ry
     estimated scf accuracy    <       0.00000045 Ry

     iteration #  4     ecut=    60.00 Ry     beta= 0.70
     Davidson diagonalization with overlap
     ethr =  1.39E-09,  avg # of iterations =  2.2

     negative rho (up, down):  4.847E-04 0.000E+00

     total cpu time spent up to now is     3452.9 secs

     total energy              =    -176.32066571 Ry
     estimated scf accuracy    <       0.00000002 Ry

     iteration #  5     ecut=    60.00 Ry     beta= 0.70
     Davidson diagonalization with overlap
     ethr =  5.29E-11,  avg # of iterations =  3.0

     negative rho (up, down):  4.847E-04 0.000E+00

     total cpu time spent up to now is     3459.0 secs

     total energy              =    -176.32066572 Ry
     estimated scf accuracy    <          7.2E-09 Ry

     iteration #  6     ecut=    60.00 Ry     beta= 0.70
     Davidson diagonalization with overlap
     ethr =  2.26E-11,  avg # of iterations =  2.0

     negative rho (up, down):  4.847E-04 0.000E+00

     total cpu time spent up to now is     3464.2 secs

     total energy              =    -176.32066572 Ry
     estimated scf accuracy    <          6.5E-10 Ry

     iteration #  7     ecut=    60.00 Ry     beta= 0.70
     Davidson diagonalization with overlap
     ethr =  2.03E-12,  avg # of iterations =  3.2

     negative rho (up, down):  4.847E-04 0.000E+00

     total cpu time spent up to now is     3470.7 secs

     total energy              =    -176.32066572 Ry
     estimated scf accuracy    <          3.1E-10 Ry

     iteration #  8     ecut=    60.00 Ry     beta= 0.70
     Davidson diagonalization with overlap
     ethr =  9.60E-13,  avg # of iterations =  2.2

     negative rho (up, down):  4.847E-04 0.000E+00

     total cpu time spent up to now is     3476.2 secs

     total energy              =    -176.32066572 Ry
     estimated scf accuracy    <          2.6E-12 Ry

     iteration #  9     ecut=    60.00 Ry     beta= 0.70
     Davidson diagonalization with overlap
     ethr =  1.00E-13,  avg # of iterations =  1.9

     negative rho (up, down):  4.847E-04 0.000E+00

     total cpu time spent up to now is     3481.1 secs

     total energy              =    -176.32066572 Ry
     estimated scf accuracy    <          1.4E-12 Ry

     iteration # 10     ecut=    60.00 Ry     beta= 0.70
     Davidson diagonalization with overlap
     ethr =  1.00E-13,  avg # of iterations =  1.0

     negative rho (up, down):  4.847E-04 0.000E+00

     total cpu time spent up to now is     3485.2 secs

     End of self-consistent calculation

          k = 0.0000 0.0000 0.0000 ( 18047 PWs)   bands (ev):

   -24.6757 -24.2333 -23.4706 -23.0905 -12.0512 -11.9265 -11.9021 -11.8487
   -10.1527  -9.0162  -7.5679  -7.0404  -6.4469  -6.4389  -6.3291  -6.1933

          k =-0.0153 0.2863 0.0000 ( 18132 PWs)   bands (ev):

   -24.5394 -24.1010 -23.6421 -23.2546 -12.1820 -12.1287 -11.6972 -11.5948
    -9.9252  -8.9446  -7.7551  -7.3631  -6.5648  -6.4561  -6.2322  -6.1123

          k = 0.0307-0.5725 0.0000 ( 18166 PWs)   bands (ev):

   -24.3123 -23.9041 -23.8765 -23.5102 -12.2439 -12.2313 -11.5627 -11.4416
    -9.6232  -8.8409  -7.9902  -7.7543  -6.6206  -6.4515  -6.1446  -6.0419

          k = 0.2575-0.1328 0.0000 ( 18109 PWs)   bands (ev):

   -24.5370 -24.0990 -23.6439 -23.2563 -12.2047 -12.1396 -11.6653 -11.6195
    -9.9120  -8.9392  -7.7567  -7.3609  -6.5543  -6.4555  -6.2268  -6.1163

          k = 0.2421 0.1535 0.0000 ( 18132 PWs)   bands (ev):

   -24.5384 -24.1069 -23.6434 -23.2472 -12.0953 -11.9650 -11.9278 -11.7098
    -9.8147  -8.8351  -7.9314  -7.4201  -6.4305  -6.3322  -6.2519  -6.2351

          k = 0.2882-0.7053 0.0000 ( 18147 PWs)   bands (ev):

   -24.3100 -23.9192 -23.8774 -23.4951 -12.2144 -12.1815 -11.6782 -11.5055
    -9.4541  -8.6077  -8.2858  -7.8645  -6.5305  -6.4045  -6.1368  -6.0720

          k = 0.2728-0.4190 0.0000 ( 18128 PWs)   bands (ev):

   -24.3078 -23.9083 -23.8718 -23.5143 -12.2765 -12.2475 -11.5346 -11.4516
    -9.5870  -8.7964  -8.0167  -7.8110  -6.5931  -6.4612  -6.1089  -6.0515

          k =-0.5150 0.2656 0.0000 ( 18184 PWs)   bands (ev):

   -24.3025 -23.9133 -23.8666 -23.5191 -12.2893 -12.2351 -11.5412 -11.4670
    -9.6008  -8.8256  -7.9959  -7.7430  -6.6010  -6.4545  -6.1371  -6.0413

          k =-0.5303 0.5518 0.0000 ( 18128 PWs)   bands (ev):

   -24.3050 -23.9228 -23.8739 -23.4992 -12.2336 -12.1902 -11.6663 -11.5141
    -9.4412  -8.6040  -8.2872  -7.8623  -6.5189  -6.4057  -6.1335  -6.0725

          k =-0.4843-0.3070 0.0000 ( 18166 PWs)   bands (ev):

   -24.3063 -23.9419 -23.8702 -23.4823 -12.1385 -11.9695 -11.9572 -11.6052
    -9.2637  -8.6665  -8.1943  -8.0554  -6.3812  -6.3147  -6.2033  -6.1874

     highest occupied level (ev):    -6.0413

!    total energy              =    -176.32066572 Ry

     total all-electron energy =      -611.708211 Ry
     estimated scf accuracy    <          2.9E-13 Ry

     The total energy is the sum of the following terms:
     one-electron contribution =    -670.98103388 Ry
     hartree contribution      =     343.50538725 Ry
     xc contribution           =     -35.63137955 Ry
     ewald contribution        =     225.13721006 Ry
     one-center paw contrib.   =     -38.35084959 Ry

     convergence has been achieved in  10 iterations

     negative rho (up, down):  4.847E-04 0.000E+00

     Forces acting on atoms (cartesian axes, Ry/au):

     atom    1 type  1   force =    -0.00019807    0.00022775    0.00012866
     atom    2 type  1   force =    -0.00030706    0.00000409    0.00135176
     atom    3 type  1   force =     0.00010957    0.00064150   -0.00026553
     atom    4 type  1   force =     0.00031341    0.00048962   -0.00136936
     atom    5 type  1   force =    -0.00054952   -0.00049301   -0.00058754
     atom    6 type  1   force =    -0.00039886   -0.00030446    0.00036397
     atom    7 type  1   force =     0.00053825   -0.00051204   -0.00014599
     atom    8 type  1   force =     0.00164679    0.00095647    0.00031886
     atom    9 type  2   force =     0.00084757   -0.00013042    0.00041419
     atom   10 type  2   force =     0.00012075   -0.00067652   -0.00029954
     atom   11 type  2   force =     0.00026062   -0.00048207   -0.00056050
     atom   12 type  2   force =    -0.00238345    0.00027909    0.00065102

     Total force =     0.004310     Total SCF correction =     0.000000
     Energy error            =      2.3E-05 Ry
     Gradient error          =      2.4E-03 Ry/Bohr

     number of scf cycles    =  44
     number of bfgs steps    =  42

     energy             old  =    -176.3206427561 Ry
     energy             new  =    -176.3206657165 Ry

     CASE: energy            _new < energy            _old

     new trust radius        =       0.0106166296 bohr
     new conv_thr            =            1.0E-12 Ry


ATOMIC_POSITIONS (angstrom)
H             4.4637703962        3.7184236517       11.1950218244
H             5.3149754489        4.2940063859        9.9950593574
H             3.3043183456        1.1861858471        8.0963143821
H             3.1486245703        2.8741049768        9.3461401190
H             4.0054073160        3.4524070380        8.1478963606
H             6.3471464689        4.0137754340        8.1012731353
H             2.9968132842        1.7881937952       11.2457090998
H             2.1188441282        3.1506117191       11.2328884996
O             5.2818697157        4.2546035284       10.9965522845
O             3.1848287364        2.9177825263        8.3445048669
O             5.4384359720        4.3971055130        8.2614246708
O             3.0303520684        2.7709063426       11.0769014773



     Writing config-only to output data dir ./output/f-BH.save/
     NEW-OLD atomic charge density approx. for the potential

     negative rho (up, down):  4.848E-04 0.000E+00

     total cpu time spent up to now is     3497.9 secs

     per-process dynamical memory:   210.2 Mb

     Self-consistent Calculation

     iteration #  1     ecut=    60.00 Ry     beta= 0.70
     Davidson diagonalization with overlap
     ethr =  1.00E-06,  avg # of iterations =  3.5

     Threshold (ethr) on eigenvalues was too large:
     Diagonalizing with lowered threshold

     Davidson diagonalization with overlap
     ethr =  9.10E-08,  avg # of iterations =  2.0

     negative rho (up, down):  4.850E-04 0.000E+00

     total cpu time spent up to now is     3509.7 secs

     total energy              =    -176.32068878 Ry
     estimated scf accuracy    <       0.00003192 Ry

     iteration #  2     ecut=    60.00 Ry     beta= 0.70
     Davidson diagonalization with overlap
     ethr =  9.97E-08,  avg # of iterations =  2.0

     negative rho (up, down):  4.852E-04 0.000E+00

     total cpu time spent up to now is     3514.9 secs

     total energy              =    -176.32069252 Ry
     estimated scf accuracy    <       0.00000188 Ry

     iteration #  3     ecut=    60.00 Ry     beta= 0.70
     Davidson diagonalization with overlap
     ethr =  5.87E-09,  avg # of iterations =  2.1

     negative rho (up, down):  4.852E-04 0.000E+00

     total cpu time spent up to now is     3520.4 secs

     total energy              =    -176.32069279 Ry
     estimated scf accuracy    <       0.00000025 Ry

     iteration #  4     ecut=    60.00 Ry     beta= 0.70
     Davidson diagonalization with overlap
     ethr =  7.91E-10,  avg # of iterations =  2.1

     negative rho (up, down):  4.852E-04 0.000E+00

     total cpu time spent up to now is     3526.1 secs

     total energy              =    -176.32069284 Ry
     estimated scf accuracy    <       0.00000003 Ry

     iteration #  5     ecut=    60.00 Ry     beta= 0.70
     Davidson diagonalization with overlap
     ethr =  7.87E-11,  avg # of iterations =  2.0

     negative rho (up, down):  4.853E-04 0.000E+00

     total cpu time spent up to now is     3531.5 secs

     total energy              =    -176.32069285 Ry
     estimated scf accuracy    <          1.4E-09 Ry

     iteration #  6     ecut=    60.00 Ry     beta= 0.70
     Davidson diagonalization with overlap
     ethr =  4.34E-12,  avg # of iterations =  3.5

     negative rho (up, down):  4.853E-04 0.000E+00

     total cpu time spent up to now is     3537.8 secs

     total energy              =    -176.32069285 Ry
     estimated scf accuracy    <          1.6E-10 Ry

     iteration #  7     ecut=    60.00 Ry     beta= 0.70
     Davidson diagonalization with overlap
     ethr =  5.14E-13,  avg # of iterations =  2.8

     negative rho (up, down):  4.853E-04 0.000E+00

     total cpu time spent up to now is     3543.8 secs

     total energy              =    -176.32069285 Ry
     estimated scf accuracy    <          3.1E-11 Ry

     iteration #  8     ecut=    60.00 Ry     beta= 0.70
     Davidson diagonalization with overlap
     ethr =  1.00E-13,  avg # of iterations =  2.2

     negative rho (up, down):  4.853E-04 0.000E+00

     total cpu time spent up to now is     3549.5 secs

     total energy              =    -176.32069285 Ry
     estimated scf accuracy    <          2.5E-12 Ry

     iteration #  9     ecut=    60.00 Ry     beta= 0.70
     Davidson diagonalization with overlap
     ethr =  1.00E-13,  avg # of iterations =  1.0

     negative rho (up, down):  4.853E-04 0.000E+00

     total cpu time spent up to now is     3553.7 secs

     End of self-consistent calculation

          k = 0.0000 0.0000 0.0000 ( 18047 PWs)   bands (ev):

   -24.6762 -24.2360 -23.4716 -23.0930 -12.0495 -11.9231 -11.8965 -11.8438
   -10.1550  -9.0271  -7.5672  -7.0428  -6.4472  -6.4396  -6.3313  -6.1944

          k =-0.0153 0.2863 0.0000 ( 18132 PWs)   bands (ev):

   -24.5398 -24.1038 -23.6432 -23.2571 -12.1778 -12.1252 -11.6935 -11.5917
    -9.9266  -8.9533  -7.7552  -7.3649  -6.5650  -6.4585  -6.2341  -6.1140

          k = 0.0307-0.5725 0.0000 ( 18166 PWs)   bands (ev):

   -24.3124 -23.9059 -23.8785 -23.5130 -12.2392 -12.2278 -11.5602 -11.4391
    -9.6237  -8.8450  -7.9935  -7.7566  -6.6208  -6.4539  -6.1470  -6.0440

          k = 0.2575-0.1328 0.0000 ( 18109 PWs)   bands (ev):

   -24.5379 -24.1021 -23.6444 -23.2584 -12.2014 -12.1384 -11.6594 -11.6152
    -9.9142  -8.9490  -7.7577  -7.3638  -6.5558  -6.4557  -6.2275  -6.1164

          k = 0.2421 0.1535 0.0000 ( 18132 PWs)   bands (ev):

   -24.5386 -24.1093 -23.6446 -23.2502 -12.0937 -11.9590 -11.9247 -11.7042
    -9.8171  -8.8457  -7.9309  -7.4232  -6.4311  -6.3333  -6.2530  -6.2368

          k = 0.2882-0.7053 0.0000 ( 18147 PWs)   bands (ev):

   -24.3098 -23.9223 -23.8778 -23.4988 -12.2116 -12.1766 -11.6747 -11.5015
    -9.4554  -8.6155  -8.2864  -7.8681  -6.5307  -6.4060  -6.1391  -6.0737

          k = 0.2728-0.4190 0.0000 ( 18128 PWs)   bands (ev):

   -24.3090 -23.9089 -23.8748 -23.5159 -12.2726 -12.2457 -11.5307 -11.4480
    -9.5882  -8.8024  -8.0203  -7.8134  -6.5938  -6.4626  -6.1106  -6.0519

          k =-0.5150 0.2656 0.0000 ( 18184 PWs)   bands (ev):

   -24.3048 -23.9127 -23.8706 -23.5195 -12.2859 -12.2349 -11.5356 -11.4628
    -9.6030  -8.8335  -7.9989  -7.7460  -6.6017  -6.4555  -6.1371  -6.0410

          k =-0.5303 0.5518 0.0000 ( 18128 PWs)   bands (ev):

   -24.3059 -23.9249 -23.8749 -23.5019 -12.2316 -12.1872 -11.6615 -11.5086
    -9.4435  -8.6134  -8.2881  -7.8661  -6.5197  -6.4067  -6.1344  -6.0727

          k =-0.4843-0.3070 0.0000 ( 18166 PWs)   bands (ev):

   -24.3057 -23.9446 -23.8706 -23.4868 -12.1369 -11.9685 -11.9484 -11.5996
    -9.2661  -8.6733  -8.1981  -8.0587  -6.3821  -6.3160  -6.2057  -6.1873

     highest occupied level (ev):    -6.0410

!    total energy              =    -176.32069285 Ry

     total all-electron energy =      -611.708238 Ry
     estimated scf accuracy    <          6.2E-13 Ry

     The total energy is the sum of the following terms:
     one-electron contribution =    -670.60426539 Ry
     hartree contribution      =     343.31589666 Ry
     xc contribution           =     -35.63088360 Ry
     ewald contribution        =     224.94943924 Ry
     one-center paw contrib.   =     -38.35087977 Ry

     convergence has been achieved in   9 iterations

     negative rho (up, down):  4.853E-04 0.000E+00

     Forces acting on atoms (cartesian axes, Ry/au):

     atom    1 type  1   force =    -0.00015520   -0.00005824    0.00100415
     atom    2 type  1   force =     0.00032513    0.00025252    0.00083703
     atom    3 type  1   force =     0.00042137    0.00019131   -0.00022023
     atom    4 type  1   force =     0.00036843    0.00024820   -0.00149512
     atom    5 type  1   force =    -0.00074230   -0.00038512   -0.00058908
     atom    6 type  1   force =    -0.00035856    0.00007739    0.00001281
     atom    7 type  1   force =     0.00098171   -0.00061478   -0.00033466
     atom    8 type  1   force =     0.00160577    0.00115276    0.00022205
     atom    9 type  2   force =     0.00029836   -0.00020595   -0.00001876
     atom   10 type  2   force =     0.00001542   -0.00048296   -0.00006114
     atom   11 type  2   force =     0.00018699   -0.00045157   -0.00017295
     atom   12 type  2   force =    -0.00294710    0.00027643    0.00081591

     Total force =     0.004611     Total SCF correction =     0.000001
     Energy error            =      2.7E-05 Ry
     Gradient error          =      2.9E-03 Ry/Bohr

     number of scf cycles    =  45
     number of bfgs steps    =  43

     energy             old  =    -176.3206657165 Ry
     energy             new  =    -176.3206928470 Ry

     CASE: energy            _new < energy            _old

     new trust radius        =       0.0133969601 bohr
     new conv_thr            =            1.0E-12 Ry


ATOMIC_POSITIONS (angstrom)
H             4.4651871107        3.7228600963       11.1949781744
H             5.3149298910        4.2968032591        9.9976417492
H             3.3017753837        1.1830311392        8.0942496673
H             3.1484826290        2.8738701569        9.3445992702
H             4.0045491332        3.4462978762        8.1444033998
H             6.3439482696        4.0089851755        8.1017112788
H             2.9980466810        1.7915261169       11.2487011406
H             2.1228932429        3.1558689243       11.2349508639
O             5.2842468870        4.2584775139       10.9987589886
O             3.1835335115        2.9129324623        8.3430621303
O             5.4353011230        4.3935338339        8.2589040570
O             3.0324925882        2.7739202036       11.0777253578



     Writing config-only to output data dir ./output/f-BH.save/
     NEW-OLD atomic charge density approx. for the potential

     negative rho (up, down):  4.850E-04 0.000E+00

     total cpu time spent up to now is     3566.4 secs

     per-process dynamical memory:   210.7 Mb

     Self-consistent Calculation

     iteration #  1     ecut=    60.00 Ry     beta= 0.70
     Davidson diagonalization with overlap
     ethr =  1.00E-06,  avg # of iterations =  4.0

     negative rho (up, down):  4.854E-04 0.000E+00

     total cpu time spent up to now is     3574.0 secs

     total energy              =    -176.32071229 Ry
     estimated scf accuracy    <       0.00003689 Ry

     iteration #  2     ecut=    60.00 Ry     beta= 0.70
     Davidson diagonalization with overlap
     ethr =  1.15E-07,  avg # of iterations =  2.0

     negative rho (up, down):  4.856E-04 0.000E+00

     total cpu time spent up to now is     3579.4 secs

     total energy              =    -176.32071811 Ry
     estimated scf accuracy    <       0.00000353 Ry

     iteration #  3     ecut=    60.00 Ry     beta= 0.70
     Davidson diagonalization with overlap
     ethr =  1.10E-08,  avg # of iterations =  3.1

     negative rho (up, down):  4.856E-04 0.000E+00

     total cpu time spent up to now is     3585.5 secs

     total energy              =    -176.32071888 Ry
     estimated scf accuracy    <       0.00000111 Ry

     iteration #  4     ecut=    60.00 Ry     beta= 0.70
     Davidson diagonalization with overlap
     ethr =  3.47E-09,  avg # of iterations =  2.6

     negative rho (up, down):  4.856E-04 0.000E+00

     total cpu time spent up to now is     3591.1 secs

     total energy              =    -176.32071912 Ry
     estimated scf accuracy    <       0.00000005 Ry

     iteration #  5     ecut=    60.00 Ry     beta= 0.70
     Davidson diagonalization with overlap
     ethr =  1.48E-10,  avg # of iterations =  3.0

     negative rho (up, down):  4.857E-04 0.000E+00

     total cpu time spent up to now is     3597.1 secs

     total energy              =    -176.32071913 Ry
     estimated scf accuracy    <       0.00000002 Ry

     iteration #  6     ecut=    60.00 Ry     beta= 0.70
     Davidson diagonalization with overlap
     ethr =  4.74E-11,  avg # of iterations =  2.0

     negative rho (up, down):  4.857E-04 0.000E+00

     total cpu time spent up to now is     3602.4 secs

     total energy              =    -176.32071913 Ry
     estimated scf accuracy    <          1.3E-09 Ry

     iteration #  7     ecut=    60.00 Ry     beta= 0.70
     Davidson diagonalization with overlap
     ethr =  4.21E-12,  avg # of iterations =  3.2

     negative rho (up, down):  4.857E-04 0.000E+00

     total cpu time spent up to now is     3608.7 secs

     total energy              =    -176.32071913 Ry
     estimated scf accuracy    <          2.5E-10 Ry

     iteration #  8     ecut=    60.00 Ry     beta= 0.70
     Davidson diagonalization with overlap
     ethr =  7.94E-13,  avg # of iterations =  2.3

     negative rho (up, down):  4.857E-04 0.000E+00

     total cpu time spent up to now is     3614.5 secs

     total energy              =    -176.32071913 Ry
     estimated scf accuracy    <          8.4E-12 Ry

     iteration #  9     ecut=    60.00 Ry     beta= 0.70
     Davidson diagonalization with overlap
     ethr =  1.00E-13,  avg # of iterations =  2.0

     negative rho (up, down):  4.857E-04 0.000E+00

     total cpu time spent up to now is     3619.4 secs

     total energy              =    -176.32071913 Ry
     estimated scf accuracy    <          1.7E-12 Ry

     iteration # 10     ecut=    60.00 Ry     beta= 0.70
     Davidson diagonalization with overlap
     ethr =  1.00E-13,  avg # of iterations =  1.0

     negative rho (up, down):  4.857E-04 0.000E+00

     total cpu time spent up to now is     3623.6 secs

     End of self-consistent calculation

          k = 0.0000 0.0000 0.0000 ( 18047 PWs)   bands (ev):

   -24.6760 -24.2384 -23.4723 -23.0950 -12.0497 -11.9208 -11.8918 -11.8389
   -10.1534  -9.0373  -7.5650  -7.0436  -6.4486  -6.4368  -6.3339  -6.1933

          k =-0.0153 0.2863 0.0000 ( 18132 PWs)   bands (ev):

   -24.5396 -24.1061 -23.6438 -23.2593 -12.1742 -12.1228 -11.6906 -11.5908
    -9.9236  -8.9605  -7.7546  -7.3659  -6.5647  -6.4598  -6.2345  -6.1139

          k = 0.0307-0.5725 0.0000 ( 18166 PWs)   bands (ev):

   -24.3120 -23.9092 -23.8783 -23.5153 -12.2334 -12.2267 -11.5588 -11.4396
    -9.6191  -8.8459  -7.9973  -7.7593  -6.6201  -6.4551  -6.1473  -6.0443

          k = 0.2575-0.1328 0.0000 ( 18109 PWs)   bands (ev):

   -24.5380 -24.1048 -23.6445 -23.2601 -12.1987 -12.1382 -11.6549 -11.6121
    -9.9120  -8.9574  -7.7580  -7.3659  -6.5563  -6.4555  -6.2271  -6.1145

          k = 0.2421 0.1535 0.0000 ( 18132 PWs)   bands (ev):

   -24.5386 -24.1118 -23.6448 -23.2525 -12.0939 -11.9545 -11.9226 -11.6990
    -9.8156  -8.8558  -7.9282  -7.4242  -6.4295  -6.3347  -6.2548  -6.2361

          k = 0.2882-0.7053 0.0000 ( 18147 PWs)   bands (ev):

   -24.3096 -23.9274 -23.8750 -23.5015 -12.2097 -12.1730 -11.6726 -11.4997
    -9.4521  -8.6210  -8.2860  -7.8709  -6.5299  -6.4063  -6.1402  -6.0744

          k = 0.2728-0.4190 0.0000 ( 18128 PWs)   bands (ev):

   -24.3093 -23.9113 -23.8753 -23.5174 -12.2686 -12.2449 -11.5280 -11.4468
    -9.5844  -8.8054  -8.0246  -7.8159  -6.5936  -6.4630  -6.1106  -6.0506

          k =-0.5150 0.2656 0.0000 ( 18184 PWs)   bands (ev):

   -24.3059 -23.9142 -23.8720 -23.5201 -12.2825 -12.2357 -11.5313 -11.4602
    -9.6000  -8.8390  -8.0028  -7.7490  -6.6014  -6.4558  -6.1355  -6.0390

          k =-0.5303 0.5518 0.0000 ( 18128 PWs)   bands (ev):

   -24.3064 -23.9293 -23.8728 -23.5038 -12.2305 -12.1852 -11.6584 -11.5045
    -9.4412  -8.6208  -8.2883  -7.8688  -6.5195  -6.4066  -6.1344  -6.0718

          k =-0.4843-0.3070 0.0000 ( 18166 PWs)   bands (ev):

   -24.3057 -23.9493 -23.8677 -23.4898 -12.1373 -11.9698 -11.9398 -11.5952
    -9.2646  -8.6818  -8.1959  -8.0605  -6.3812  -6.3145  -6.2090  -6.1879

     highest occupied level (ev):    -6.0390

!    total energy              =    -176.32071913 Ry

     total all-electron energy =      -611.708264 Ry
     estimated scf accuracy    <          2.2E-13 Ry

     The total energy is the sum of the following terms:
     one-electron contribution =    -670.16749435 Ry
     hartree contribution      =     343.09736946 Ry
     xc contribution           =     -35.63082639 Ry
     ewald contribution        =     224.73112474 Ry
     one-center paw contrib.   =     -38.35089259 Ry

     convergence has been achieved in  10 iterations

     negative rho (up, down):  4.857E-04 0.000E+00

     Forces acting on atoms (cartesian axes, Ry/au):

     atom    1 type  1   force =    -0.00012434   -0.00031537    0.00175825
     atom    2 type  1   force =     0.00087427    0.00048304    0.00019954
     atom    3 type  1   force =     0.00056206   -0.00027326   -0.00013612
     atom    4 type  1   force =     0.00030883   -0.00011879   -0.00125124
     atom    5 type  1   force =    -0.00083961   -0.00014790   -0.00060444
     atom    6 type  1   force =    -0.00039309    0.00043593   -0.00030401
     atom    7 type  1   force =     0.00097894   -0.00040839   -0.00051433
     atom    8 type  1   force =     0.00075723    0.00112298    0.00030735
     atom    9 type  2   force =    -0.00037862   -0.00031167   -0.00024282
     atom   10 type  2   force =     0.00003860   -0.00026926   -0.00011127
     atom   11 type  2   force =     0.00024142   -0.00042956    0.00017390
     atom   12 type  2   force =    -0.00202568    0.00023225    0.00072519

     Total force =     0.004064     Total SCF correction =     0.000000
     Energy error            =      2.6E-05 Ry
     Gradient error          =      2.0E-03 Ry/Bohr

     number of scf cycles    =  46
     number of bfgs steps    =  44

     energy             old  =    -176.3206928470 Ry
     energy             new  =    -176.3207191307 Ry

     CASE: energy            _new < energy            _old

     new trust radius        =       0.0141527451 bohr
     new conv_thr            =            1.0E-12 Ry


ATOMIC_POSITIONS (angstrom)
H             4.4670293550        3.7268157021       11.1961553934
H             5.3156831876        4.2995990709        9.9996494605
H             3.3003139821        1.1796487496        8.0925268197
H             3.1483192265        2.8740096064        9.3429119830
H             4.0028124941        3.4404859343        8.1404534114
H             6.3408204261        4.0043470013        8.1015556062
H             2.9992445854        1.7942276904       11.2513008182
H             2.1265918717        3.1619444336       11.2372956666
O             5.2864366448        4.2622937796       11.0004832262
O             3.1818352028        2.9083050814        8.3415947722
O             5.4326190544        4.3898293298        8.2567470792
O             3.0336804203        2.7766003786       11.0790118412



     Writing config-only to output data dir ./output/f-BH.save/
     NEW-OLD atomic charge density approx. for the potential

     negative rho (up, down):  4.851E-04 0.000E+00

     total cpu time spent up to now is     3636.3 secs

     per-process dynamical memory:   210.2 Mb

     Self-consistent Calculation

     iteration #  1     ecut=    60.00 Ry     beta= 0.70
     Davidson diagonalization with overlap
     ethr =  1.00E-06,  avg # of iterations =  3.9

     negative rho (up, down):  4.856E-04 0.000E+00

     total cpu time spent up to now is     3643.8 secs

     total energy              =    -176.32073571 Ry
     estimated scf accuracy    <       0.00003356 Ry

     iteration #  2     ecut=    60.00 Ry     beta= 0.70
     Davidson diagonalization with overlap
     ethr =  1.05E-07,  avg # of iterations =  2.2

     negative rho (up, down):  4.859E-04 0.000E+00

     total cpu time spent up to now is     3649.3 secs

     total energy              =    -176.32074131 Ry
     estimated scf accuracy    <       0.00000391 Ry

     iteration #  3     ecut=    60.00 Ry     beta= 0.70
     Davidson diagonalization with overlap
     ethr =  1.22E-08,  avg # of iterations =  3.0

     negative rho (up, down):  4.859E-04 0.000E+00

     total cpu time spent up to now is     3655.6 secs

     total energy              =    -176.32074216 Ry
     estimated scf accuracy    <       0.00000159 Ry

     iteration #  4     ecut=    60.00 Ry     beta= 0.70
     Davidson diagonalization with overlap
     ethr =  4.97E-09,  avg # of iterations =  2.2

     negative rho (up, down):  4.859E-04 0.000E+00

     total cpu time spent up to now is     3661.0 secs

     total energy              =    -176.32074246 Ry
     estimated scf accuracy    <       0.00000004 Ry

     iteration #  5     ecut=    60.00 Ry     beta= 0.70
     Davidson diagonalization with overlap
     ethr =  1.27E-10,  avg # of iterations =  4.7

     negative rho (up, down):  4.859E-04 0.000E+00

     total cpu time spent up to now is     3668.3 secs

     total energy              =    -176.32074248 Ry
     estimated scf accuracy    <       0.00000006 Ry

     iteration #  6     ecut=    60.00 Ry     beta= 0.70
     Davidson diagonalization with overlap
     ethr =  1.27E-10,  avg # of iterations =  2.0

     negative rho (up, down):  4.859E-04 0.000E+00

     total cpu time spent up to now is     3673.7 secs

     total energy              =    -176.32074248 Ry
     estimated scf accuracy    <          4.0E-09 Ry

     iteration #  7     ecut=    60.00 Ry     beta= 0.70
     Davidson diagonalization with overlap
     ethr =  1.25E-11,  avg # of iterations =  3.8

     negative rho (up, down):  4.859E-04 0.000E+00

     total cpu time spent up to now is     3680.6 secs

     total energy              =    -176.32074248 Ry
     estimated scf accuracy    <          2.1E-09 Ry

     iteration #  8     ecut=    60.00 Ry     beta= 0.70
     Davidson diagonalization with overlap
     ethr =  6.44E-12,  avg # of iterations =  2.0

     negative rho (up, down):  4.859E-04 0.000E+00

     total cpu time spent up to now is     3685.9 secs

     total energy              =    -176.32074248 Ry
     estimated scf accuracy    <          7.1E-11 Ry

     iteration #  9     ecut=    60.00 Ry     beta= 0.70
     Davidson diagonalization with overlap
     ethr =  2.22E-13,  avg # of iterations =  4.1

     negative rho (up, down):  4.859E-04 0.000E+00

     total cpu time spent up to now is     3693.1 secs

     total energy              =    -176.32074248 Ry
     estimated scf accuracy    <          2.5E-11 Ry

     iteration # 10     ecut=    60.00 Ry     beta= 0.70
     Davidson diagonalization with overlap
     ethr =  1.00E-13,  avg # of iterations =  1.9

     negative rho (up, down):  4.859E-04 0.000E+00

     total cpu time spent up to now is     3697.9 secs

     total energy              =    -176.32074248 Ry
     estimated scf accuracy    <          2.7E-12 Ry

     iteration # 11     ecut=    60.00 Ry     beta= 0.70
     Davidson diagonalization with overlap
     ethr =  1.00E-13,  avg # of iterations =  1.0

     negative rho (up, down):  4.859E-04 0.000E+00

     total cpu time spent up to now is     3702.2 secs

     End of self-consistent calculation

          k = 0.0000 0.0000 0.0000 ( 18047 PWs)   bands (ev):

   -24.6746 -24.2399 -23.4716 -23.0963 -12.0518 -11.9198 -11.8900 -11.8353
   -10.1474  -9.0442  -7.5607  -7.0422  -6.4488  -6.4326  -6.3361  -6.1912

          k =-0.0153 0.2863 0.0000 ( 18132 PWs)   bands (ev):

   -24.5381 -24.1077 -23.6430 -23.2606 -12.1725 -12.1218 -11.6888 -11.5927
    -9.9163  -8.9644  -7.7521  -7.3654  -6.5633  -6.4596  -6.2331  -6.1126

          k = 0.0307-0.5725 0.0000 ( 18166 PWs)   bands (ev):

   -24.3104 -23.9127 -23.8755 -23.5167 -12.2318 -12.2246 -11.5584 -11.4431
    -9.6101  -8.8439  -7.9991  -7.7607  -6.6182  -6.4549  -6.1451  -6.0434

          k = 0.2575-0.1328 0.0000 ( 18109 PWs)   bands (ev):

   -24.5368 -24.1065 -23.6435 -23.2612 -12.1973 -12.1391 -11.6529 -11.6108
    -9.9057  -8.9626  -7.7559  -7.3657  -6.5556  -6.4547  -6.2253  -6.1119

          k = 0.2421 0.1535 0.0000 ( 18132 PWs)   bands (ev):

   -24.5374 -24.1136 -23.6435 -23.2538 -12.0958 -11.9527 -11.9213 -11.6964
    -9.8100  -8.8622  -7.9230  -7.4226  -6.4262  -6.3353  -6.2567  -6.2340

          k = 0.2882-0.7053 0.0000 ( 18147 PWs)   bands (ev):

   -24.3085 -23.9319 -23.8707 -23.5029 -12.2097 -12.1705 -11.6720 -11.5007
    -9.4445  -8.6232  -8.2835  -7.8716  -6.5280  -6.4056  -6.1393  -6.0743

          k = 0.2728-0.4190 0.0000 ( 18128 PWs)   bands (ev):

   -24.3081 -23.9143 -23.8732 -23.5183 -12.2665 -12.2447 -11.5270 -11.4484
    -9.5763  -8.8055  -8.0264  -7.8167  -6.5923  -6.4622  -6.1084  -6.0488

          k =-0.5150 0.2656 0.0000 ( 18184 PWs)   bands (ev):

   -24.3051 -23.9165 -23.8705 -23.5206 -12.2803 -12.2371 -11.5295 -11.4598
    -9.5928  -8.8413  -8.0040  -7.7501  -6.6003  -6.4551  -6.1324  -6.0366

          k =-0.5303 0.5518 0.0000 ( 18128 PWs)   bands (ev):

   -24.3057 -23.9333 -23.8689 -23.5047 -12.2307 -12.1842 -11.6574 -11.5033
    -9.4347  -8.6247  -8.2860  -7.8688  -6.5183  -6.4058  -6.1328  -6.0706

          k =-0.4843-0.3070 0.0000 ( 18166 PWs)   bands (ev):

   -24.3052 -23.9534 -23.8633 -23.4911 -12.1391 -11.9722 -11.9340 -11.5938
    -9.2589  -8.6874  -8.1896  -8.0598  -6.3787  -6.3119  -6.2106  -6.1891

     highest occupied level (ev):    -6.0366

!    total energy              =    -176.32074248 Ry

     total all-electron energy =      -611.708287 Ry
     estimated scf accuracy    <          5.3E-14 Ry

     The total energy is the sum of the following terms:
     one-electron contribution =    -669.73682305 Ry
     hartree contribution      =     342.88308114 Ry
     xc contribution           =     -35.63109944 Ry
     ewald contribution        =     224.51498221 Ry
     one-center paw contrib.   =     -38.35088334 Ry

     convergence has been achieved in  11 iterations

     negative rho (up, down):  4.859E-04 0.000E+00

     Forces acting on atoms (cartesian axes, Ry/au):

     atom    1 type  1   force =    -0.00003712   -0.00043694    0.00200895
     atom    2 type  1   force =     0.00104733    0.00048264   -0.00022401
     atom    3 type  1   force =     0.00050186   -0.00064508   -0.00005046
     atom    4 type  1   force =     0.00019449   -0.00048080   -0.00079057
     atom    5 type  1   force =    -0.00068018    0.00019071   -0.00062235
     atom    6 type  1   force =    -0.00006165    0.00045980   -0.00058015
     atom    7 type  1   force =     0.00061301    0.00004351   -0.00062267
     atom    8 type  1   force =    -0.00032740    0.00079550    0.00047685
     atom    9 type  2   force =    -0.00085366   -0.00032125   -0.00021422
     atom   10 type  2   force =    -0.00000727   -0.00020639   -0.00030977
     atom   11 type  2   force =     0.00000635   -0.00009949    0.00046782
     atom   12 type  2   force =    -0.00039577    0.00021779    0.00046058

     Total force =     0.003465     Total SCF correction =     0.000000
     Energy error            =      2.3E-05 Ry
     Gradient error          =      2.0E-03 Ry/Bohr

     number of scf cycles    =  47
     number of bfgs steps    =  45

     energy             old  =    -176.3207191307 Ry
     energy             new  =    -176.3207424839 Ry

     CASE: energy            _new < energy            _old

     new trust radius        =       0.0136908628 bohr
     new conv_thr            =            1.0E-12 Ry


ATOMIC_POSITIONS (angstrom)
H             4.4686400857        3.7297518174       11.1986693885
H             5.3170421877        4.3023690606       10.0012794410
H             3.2996247505        1.1762675747        8.0909789737
H             3.1483221615        2.8740617515        9.3409882595
H             4.0006762476        3.4355580124        8.1361843808
H             6.3381563171        4.0005243569        8.1007433516
H             3.0003193510        1.7966012114       11.2533027733
H             2.1297173261        3.1679797521       11.2398046372
O             5.2879170494        4.2653528371       11.0019023416
O             3.1801585204        2.9040980991        8.3399665354
O             5.4303828515        4.3864896210        8.2553695638
O             3.0344296023        2.7790526637       11.0804964315



     Writing config-only to output data dir ./output/f-BH.save/
     NEW-OLD atomic charge density approx. for the potential

     negative rho (up, down):  4.849E-04 0.000E+00

     total cpu time spent up to now is     3714.8 secs

     per-process dynamical memory:   210.7 Mb

     Self-consistent Calculation

     iteration #  1     ecut=    60.00 Ry     beta= 0.70
     Davidson diagonalization with overlap
     ethr =  1.00E-06,  avg # of iterations =  3.0

     Threshold (ethr) on eigenvalues was too large:
     Diagonalizing with lowered threshold

     Davidson diagonalization with overlap
     ethr =  8.07E-08,  avg # of iterations =  2.1

     negative rho (up, down):  4.856E-04 0.000E+00

     total cpu time spent up to now is     3726.4 secs

     total energy              =    -176.32076011 Ry
     estimated scf accuracy    <       0.00002918 Ry

     iteration #  2     ecut=    60.00 Ry     beta= 0.70
     Davidson diagonalization with overlap
     ethr =  9.12E-08,  avg # of iterations =  2.0

     negative rho (up, down):  4.858E-04 0.000E+00

     total cpu time spent up to now is     3731.4 secs

     total energy              =    -176.32076316 Ry
     estimated scf accuracy    <       0.00000223 Ry

     iteration #  3     ecut=    60.00 Ry     beta= 0.70
     Davidson diagonalization with overlap
     ethr =  6.97E-09,  avg # of iterations =  2.1

     negative rho (up, down):  4.858E-04 0.000E+00

     total cpu time spent up to now is     3737.0 secs

     total energy              =    -176.32076350 Ry
     estimated scf accuracy    <       0.00000067 Ry

     iteration #  4     ecut=    60.00 Ry     beta= 0.70
     Davidson diagonalization with overlap
     ethr =  2.09E-09,  avg # of iterations =  2.1

     negative rho (up, down):  4.858E-04 0.000E+00

     total cpu time spent up to now is     3742.4 secs

     total energy              =    -176.32076363 Ry
     estimated scf accuracy    <       0.00000002 Ry

     iteration #  5     ecut=    60.00 Ry     beta= 0.70
     Davidson diagonalization with overlap
     ethr =  6.69E-11,  avg # of iterations =  3.0

     negative rho (up, down):  4.858E-04 0.000E+00

     total cpu time spent up to now is     3748.7 secs

     total energy              =    -176.32076364 Ry
     estimated scf accuracy    <       0.00000001 Ry

     iteration #  6     ecut=    60.00 Ry     beta= 0.70
     Davidson diagonalization with overlap
     ethr =  3.74E-11,  avg # of iterations =  2.0

     negative rho (up, down):  4.858E-04 0.000E+00

     total cpu time spent up to now is     3754.1 secs

     total energy              =    -176.32076364 Ry
     estimated scf accuracy    <          3.0E-10 Ry

     iteration #  7     ecut=    60.00 Ry     beta= 0.70
     Davidson diagonalization with overlap
     ethr =  9.39E-13,  avg # of iterations =  5.5

     negative rho (up, down):  4.858E-04 0.000E+00

     total cpu time spent up to now is     3762.0 secs

     total energy              =    -176.32076364 Ry
     estimated scf accuracy    <          6.7E-10 Ry

     iteration #  8     ecut=    60.00 Ry     beta= 0.70
     Davidson diagonalization with overlap
     ethr =  9.39E-13,  avg # of iterations =  3.0

     negative rho (up, down):  4.858E-04 0.000E+00

     total cpu time spent up to now is     3768.3 secs

     total energy              =    -176.32076364 Ry
     estimated scf accuracy    <          4.0E-12 Ry

     iteration #  9     ecut=    60.00 Ry     beta= 0.70
     Davidson diagonalization with overlap
     ethr =  1.00E-13,  avg # of iterations =  3.0

     negative rho (up, down):  4.858E-04 0.000E+00

     total cpu time spent up to now is     3773.9 secs

     total energy              =    -176.32076364 Ry
     estimated scf accuracy    <          7.6E-12 Ry

     iteration # 10     ecut=    60.00 Ry     beta= 0.70
     Davidson diagonalization with overlap
     ethr =  1.00E-13,  avg # of iterations =  1.0

     negative rho (up, down):  4.858E-04 0.000E+00

     total cpu time spent up to now is     3778.2 secs

     total energy              =    -176.32076364 Ry
     estimated scf accuracy    <          2.6E-12 Ry

     iteration # 11     ecut=    60.00 Ry     beta= 0.70
     Davidson diagonalization with overlap
     ethr =  1.00E-13,  avg # of iterations =  1.0

     negative rho (up, down):  4.858E-04 0.000E+00

     total cpu time spent up to now is     3782.4 secs

     End of self-consistent calculation

          k = 0.0000 0.0000 0.0000 ( 18047 PWs)   bands (ev):

   -24.6710 -24.2397 -23.4688 -23.0960 -12.0528 -11.9183 -11.8906 -11.8327
   -10.1381  -9.0468  -7.5544  -7.0381  -6.4468  -6.4278  -6.3365  -6.1887

          k =-0.0153 0.2863 0.0000 ( 18132 PWs)   bands (ev):

   -24.5346 -24.1076 -23.6400 -23.2603 -12.1713 -12.1204 -11.6873 -11.5956
    -9.9064  -8.9650  -7.7471  -7.3624  -6.5604  -6.4579  -6.2300  -6.1103

          k = 0.0307-0.5725 0.0000 ( 18166 PWs)   bands (ev):

   -24.3068 -23.9137 -23.8715 -23.5165 -12.2327 -12.2199 -11.5579 -11.4478
    -9.5993  -8.8406  -7.9970  -7.7591  -6.6149  -6.4535  -6.1411  -6.0411

          k = 0.2575-0.1328 0.0000 ( 18109 PWs)   bands (ev):

   -24.5333 -24.1065 -23.6404 -23.2608 -12.1961 -12.1395 -11.6520 -11.6104
    -9.8966  -8.9640  -7.7508  -7.3625  -6.5536  -6.4527  -6.2219  -6.1091

          k = 0.2421 0.1535 0.0000 ( 18132 PWs)   bands (ev):

   -24.5341 -24.1136 -23.6401 -23.2534 -12.0965 -11.9518 -11.9200 -11.6963
    -9.8011  -8.8640  -7.9159  -7.4185  -6.4221  -6.3337  -6.2571  -6.2314

          k = 0.2882-0.7053 0.0000 ( 18147 PWs)   bands (ev):

   -24.3054 -23.9332 -23.8658 -23.5025 -12.2095 -12.1679 -11.6718 -11.5036
    -9.4345  -8.6222  -8.2781  -7.8692  -6.5248  -6.4041  -6.1364  -6.0728

          k = 0.2728-0.4190 0.0000 ( 18128 PWs)   bands (ev):

   -24.3047 -23.9149 -23.8695 -23.5178 -12.2654 -12.2431 -11.5263 -11.4511
    -9.5661  -8.8035  -8.0238  -7.8145  -6.5899  -6.4604  -6.1043  -6.0463

          k =-0.5150 0.2656 0.0000 ( 18184 PWs)   bands (ev):

   -24.3018 -23.9167 -23.8673 -23.5198 -12.2787 -12.2375 -11.5286 -11.4603
    -9.5834  -8.8406  -8.0008  -7.7478  -6.5983  -6.4533  -6.1278  -6.0339

          k =-0.5303 0.5518 0.0000 ( 18128 PWs)   bands (ev):

   -24.3028 -23.9342 -23.8644 -23.5041 -12.2308 -12.1829 -11.6569 -11.5040
    -9.4255  -8.6247  -8.2806  -7.8658  -6.5161  -6.4040  -6.1292  -6.0689

          k =-0.4843-0.3070 0.0000 ( 18166 PWs)   bands (ev):

   -24.3026 -23.9543 -23.8583 -23.4906 -12.1396 -11.9729 -11.9307 -11.5951
    -9.2499  -8.6876  -8.1825  -8.0562  -6.3751  -6.3091  -6.2088  -6.1901

     highest occupied level (ev):    -6.0339

!    total energy              =    -176.32076364 Ry

     total all-electron energy =      -611.708308 Ry
     estimated scf accuracy    <          3.6E-13 Ry

     The total energy is the sum of the following terms:
     one-electron contribution =    -669.32789676 Ry
     hartree contribution      =     342.68125703 Ry
     xc contribution           =     -35.63127102 Ry
     ewald contribution        =     224.30800631 Ry
     one-center paw contrib.   =     -38.35085919 Ry

     convergence has been achieved in  11 iterations

     negative rho (up, down):  4.858E-04 0.000E+00

     Forces acting on atoms (cartesian axes, Ry/au):

     atom    1 type  1   force =     0.00012854   -0.00041792    0.00166738
     atom    2 type  1   force =     0.00077825    0.00018171   -0.00036611
     atom    3 type  1   force =     0.00026675   -0.00065303    0.00001306
     atom    4 type  1   force =     0.00007828   -0.00074045   -0.00025052
     atom    5 type  1   force =    -0.00046339    0.00046713   -0.00054946
     atom    6 type  1   force =     0.00015536    0.00028876   -0.00068761
     atom    7 type  1   force =     0.00010587    0.00044503   -0.00061960
     atom    8 type  1   force =    -0.00121641    0.00028224    0.00060316
     atom    9 type  2   force =    -0.00093085   -0.00011843    0.00008994
     atom   10 type  2   force =    -0.00004627   -0.00013730   -0.00064990
     atom   11 type  2   force =     0.00001240    0.00006470    0.00059941
     atom   12 type  2   force =     0.00113150    0.00033755    0.00015025

     Total force =     0.003436     Total SCF correction =     0.000001
     Energy error            =      2.1E-05 Ry
     Gradient error          =      1.7E-03 Ry/Bohr

     number of scf cycles    =  48
     number of bfgs steps    =  46

     energy             old  =    -176.3207424839 Ry
     energy             new  =    -176.3207636382 Ry

     CASE: energy            _new < energy            _old

     new trust radius        =       0.0114198787 bohr
     new conv_thr            =            1.0E-12 Ry


ATOMIC_POSITIONS (angstrom)
H             4.4696255849        3.7314511100       11.2021285387
H             5.3185761612        4.3049099522       10.0027784489
H             3.2991816998        1.1731894466        8.0896814207
H             3.1485887854        2.8736974094        9.3387932302
H             3.9986364307        3.4320791118        8.1319921167
H             6.3361024310        3.9978717166        8.0994219042
H             3.0011278993        1.7987807816       11.2545337439
H             2.1320241778        3.1730058411       11.2422411102
O             5.2884653414        4.2674235571       11.0032980229
O             3.1789602742        2.9005753071        8.3379671502
O             5.4287724137        4.3836990146        8.2548473008
O             3.0353252515        2.7814235100       11.0820030904



     Writing config-only to output data dir ./output/f-BH.save/
     NEW-OLD atomic charge density approx. for the potential

     negative rho (up, down):  4.847E-04 0.000E+00

     total cpu time spent up to now is     3795.1 secs

     per-process dynamical memory:   210.2 Mb

     Self-consistent Calculation

     iteration #  1     ecut=    60.00 Ry     beta= 0.70
     Davidson diagonalization with overlap
     ethr =  1.00E-06,  avg # of iterations =  3.0

     Threshold (ethr) on eigenvalues was too large:
     Diagonalizing with lowered threshold

     Davidson diagonalization with overlap
     ethr =  5.69E-08,  avg # of iterations =  2.0

     negative rho (up, down):  4.853E-04 0.000E+00

     total cpu time spent up to now is     3806.7 secs

     total energy              =    -176.32077962 Ry
     estimated scf accuracy    <       0.00002051 Ry

     iteration #  2     ecut=    60.00 Ry     beta= 0.70
     Davidson diagonalization with overlap
     ethr =  6.41E-08,  avg # of iterations =  2.0

     negative rho (up, down):  4.856E-04 0.000E+00

     total cpu time spent up to now is     3811.7 secs

     total energy              =    -176.32078174 Ry
     estimated scf accuracy    <       0.00000133 Ry

     iteration #  3     ecut=    60.00 Ry     beta= 0.70
     Davidson diagonalization with overlap
     ethr =  4.16E-09,  avg # of iterations =  2.1

     negative rho (up, down):  4.856E-04 0.000E+00

     total cpu time spent up to now is     3817.3 secs

     total energy              =    -176.32078191 Ry
     estimated scf accuracy    <       0.00000028 Ry

     iteration #  4     ecut=    60.00 Ry     beta= 0.70
     Davidson diagonalization with overlap
     ethr =  8.76E-10,  avg # of iterations =  2.4

     negative rho (up, down):  4.856E-04 0.000E+00

     total cpu time spent up to now is     3822.8 secs

     total energy              =    -176.32078197 Ry
     estimated scf accuracy    <       0.00000002 Ry

     iteration #  5     ecut=    60.00 Ry     beta= 0.70
     Davidson diagonalization with overlap
     ethr =  7.74E-11,  avg # of iterations =  2.0

     negative rho (up, down):  4.856E-04 0.000E+00

     total cpu time spent up to now is     3828.1 secs

     total energy              =    -176.32078198 Ry
     estimated scf accuracy    <          2.6E-09 Ry

     iteration #  6     ecut=    60.00 Ry     beta= 0.70
     Davidson diagonalization with overlap
     ethr =  8.01E-12,  avg # of iterations =  2.4

     negative rho (up, down):  4.856E-04 0.000E+00

     total cpu time spent up to now is     3833.9 secs

     total energy              =    -176.32078198 Ry
     estimated scf accuracy    <          8.0E-11 Ry

     iteration #  7     ecut=    60.00 Ry     beta= 0.70
     Davidson diagonalization with overlap
     ethr =  2.51E-13,  avg # of iterations =  3.2

     negative rho (up, down):  4.856E-04 0.000E+00

     total cpu time spent up to now is     3840.3 secs

     total energy              =    -176.32078198 Ry
     estimated scf accuracy    <          5.0E-11 Ry

     iteration #  8     ecut=    60.00 Ry     beta= 0.70
     Davidson diagonalization with overlap
     ethr =  1.57E-13,  avg # of iterations =  3.0

     negative rho (up, down):  4.856E-04 0.000E+00

     total cpu time spent up to now is     3846.6 secs

     total energy              =    -176.32078198 Ry
     estimated scf accuracy    <          5.3E-12 Ry

     iteration #  9     ecut=    60.00 Ry     beta= 0.70
     Davidson diagonalization with overlap
     ethr =  1.00E-13,  avg # of iterations =  1.0

     negative rho (up, down):  4.856E-04 0.000E+00

     total cpu time spent up to now is     3850.8 secs

     End of self-consistent calculation

          k = 0.0000 0.0000 0.0000 ( 18047 PWs)   bands (ev):

   -24.6660 -24.2381 -23.4645 -23.0944 -12.0507 -11.9158 -11.8925 -11.8312
   -10.1284  -9.0466  -7.5475  -7.0327  -6.4435  -6.4237  -6.3353  -6.1868

          k =-0.0153 0.2863 0.0000 ( 18132 PWs)   bands (ev):

   -24.5296 -24.1060 -23.6356 -23.2587 -12.1691 -12.1187 -11.6852 -11.5981
    -9.8966  -8.9639  -7.7410  -7.3578  -6.5568  -6.4554  -6.2266  -6.1079

          k = 0.0307-0.5725 0.0000 ( 18166 PWs)   bands (ev):

   -24.3018 -23.9113 -23.8678 -23.5149 -12.2319 -12.2161 -11.5559 -11.4514
    -9.5893  -8.8378  -7.9923  -7.7551  -6.6110  -6.4516  -6.1370  -6.0381

          k = 0.2575-0.1328 0.0000 ( 18109 PWs)   bands (ev):

   -24.5284 -24.1050 -23.6359 -23.2591 -12.1938 -12.1392 -11.6513 -11.6096
    -9.8876  -8.9631  -7.7438  -7.3573  -6.5511  -6.4501  -6.2183  -6.1070

          k = 0.2421 0.1535 0.0000 ( 18132 PWs)   bands (ev):

   -24.5292 -24.1120 -23.6355 -23.2518 -12.0941 -11.9504 -11.9187 -11.6978
    -9.7917  -8.8625  -7.9088  -7.4133  -6.4185  -6.3305  -6.2559  -6.2295

          k = 0.2882-0.7053 0.0000 ( 18147 PWs)   bands (ev):

   -24.3006 -23.9309 -23.8618 -23.5010 -12.2074 -12.1654 -11.6705 -11.5065
    -9.4246  -8.6197  -8.2719  -7.8650  -6.5213  -6.4026  -6.1329  -6.0702

          k = 0.2728-0.4190 0.0000 ( 18128 PWs)   bands (ev):

   -24.2998 -23.9122 -23.8661 -23.5160 -12.2634 -12.2413 -11.5248 -11.4530
    -9.5570  -8.8014  -8.0180  -7.8097  -6.5872  -6.4579  -6.1001  -6.0438

          k =-0.5150 0.2656 0.0000 ( 18184 PWs)   bands (ev):

   -24.2972 -23.9137 -23.8642 -23.5178 -12.2765 -12.2369 -11.5278 -11.4601
    -9.5752  -8.8390  -7.9939  -7.7424  -6.5964  -6.4507  -6.1234  -6.0318

          k =-0.5303 0.5518 0.0000 ( 18128 PWs)   bands (ev):

   -24.2982 -23.9317 -23.8606 -23.5024 -12.2288 -12.1814 -11.6558 -11.5052
    -9.4168  -8.6227  -8.2734  -7.8606  -6.5141  -6.4018  -6.1251  -6.0671

          k =-0.4843-0.3070 0.0000 ( 18166 PWs)   bands (ev):

   -24.2981 -23.9517 -23.8542 -23.4891 -12.1370 -11.9712 -11.9291 -11.5978
    -9.2403  -8.6830  -8.1781  -8.0510  -6.3720  -6.3070  -6.2046  -6.1900

     highest occupied level (ev):    -6.0318

!    total energy              =    -176.32078198 Ry

     total all-electron energy =      -611.708327 Ry
     estimated scf accuracy    <          4.8E-13 Ry

     The total energy is the sum of the following terms:
     one-electron contribution =    -668.93639370 Ry
     hartree contribution      =     342.48887763 Ry
     xc contribution           =     -35.63092921 Ry
     ewald contribution        =     224.10849714 Ry
     one-center paw contrib.   =     -38.35083383 Ry

     convergence has been achieved in   9 iterations

     negative rho (up, down):  4.856E-04 0.000E+00

     Forces acting on atoms (cartesian axes, Ry/au):

     atom    1 type  1   force =     0.00035435   -0.00027348    0.00090391
     atom    2 type  1   force =     0.00020636   -0.00034866   -0.00019068
     atom    3 type  1   force =     0.00000395   -0.00042825    0.00004080
     atom    4 type  1   force =     0.00000272   -0.00083214    0.00006764
     atom    5 type  1   force =    -0.00021355    0.00061298   -0.00040921
     atom    6 type  1   force =     0.00040811   -0.00006203   -0.00068218
     atom    7 type  1   force =    -0.00026618    0.00076567   -0.00053298
     atom    8 type  1   force =    -0.00145246   -0.00026464    0.00057603
     atom    9 type  2   force =    -0.00062729    0.00025204    0.00046734
     atom   10 type  2   force =    -0.00014715   -0.00008261   -0.00080898
     atom   11 type  2   force =     0.00000111    0.00021263    0.00062822
     atom   12 type  2   force =     0.00173002    0.00044848   -0.00005990

     Total force =     0.003431     Total SCF correction =     0.000001
     Energy error            =      1.8E-05 Ry
     Gradient error          =      1.7E-03 Ry/Bohr

     number of scf cycles    =  49
     number of bfgs steps    =  47

     energy             old  =    -176.3207636382 Ry
     energy             new  =    -176.3207819761 Ry

     CASE: energy            _new < energy            _old

     new trust radius        =       0.0080699873 bohr
     new conv_thr            =            1.0E-12 Ry


ATOMIC_POSITIONS (angstrom)
H             4.4699008475        3.7320757513       11.2056742872
H             5.3196740819        4.3067156487       10.0044221457
H             3.2985681285        1.1708689330        8.0884899129
H             3.1491178514        2.8725936348        9.3364505399
H             3.9972147831        3.4301675421        8.1284478831
H             6.3348890165        3.9965208223        8.0979802299
H             3.0018132786        1.8009586010       11.2549938535
H             2.1333376763        3.1761754270       11.2443094701
O             5.2882251491        4.2685577665       11.0049138771
O             3.1784171997        2.8979274108        8.3357239885
O             5.4277549220        4.3818554519        8.2551010541
O             3.0364735161        2.7836897687       11.0831788359



     Writing config-only to output data dir ./output/f-BH.save/
     NEW-OLD atomic charge density approx. for the potential

     negative rho (up, down):  4.845E-04 0.000E+00

     total cpu time spent up to now is     3863.5 secs

     per-process dynamical memory:   210.7 Mb

     Self-consistent Calculation

     iteration #  1     ecut=    60.00 Ry     beta= 0.70
     Davidson diagonalization with overlap
     ethr =  1.00E-06,  avg # of iterations =  3.0

     Threshold (ethr) on eigenvalues was too large:
     Diagonalizing with lowered threshold

     Davidson diagonalization with overlap
     ethr =  3.79E-08,  avg # of iterations =  2.0

     negative rho (up, down):  4.850E-04 0.000E+00

     total cpu time spent up to now is     3874.9 secs

     total energy              =    -176.32079528 Ry
     estimated scf accuracy    <       0.00001368 Ry

     iteration #  2     ecut=    60.00 Ry     beta= 0.70
     Davidson diagonalization with overlap
     ethr =  4.27E-08,  avg # of iterations =  2.0

     negative rho (up, down):  4.852E-04 0.000E+00

     total cpu time spent up to now is     3879.9 secs

     total energy              =    -176.32079676 Ry
     estimated scf accuracy    <       0.00000086 Ry

     iteration #  3     ecut=    60.00 Ry     beta= 0.70
     Davidson diagonalization with overlap
     ethr =  2.69E-09,  avg # of iterations =  2.0

     negative rho (up, down):  4.853E-04 0.000E+00

     total cpu time spent up to now is     3885.4 secs

     total energy              =    -176.32079687 Ry
     estimated scf accuracy    <       0.00000016 Ry

     iteration #  4     ecut=    60.00 Ry     beta= 0.70
     Davidson diagonalization with overlap
     ethr =  4.92E-10,  avg # of iterations =  2.3

     negative rho (up, down):  4.853E-04 0.000E+00

     total cpu time spent up to now is     3890.9 secs

     total energy              =    -176.32079691 Ry
     estimated scf accuracy    <       0.00000001 Ry

     iteration #  5     ecut=    60.00 Ry     beta= 0.70
     Davidson diagonalization with overlap
     ethr =  4.55E-11,  avg # of iterations =  2.0

     negative rho (up, down):  4.853E-04 0.000E+00

     total cpu time spent up to now is     3896.3 secs

     total energy              =    -176.32079691 Ry
     estimated scf accuracy    <          1.2E-09 Ry

     iteration #  6     ecut=    60.00 Ry     beta= 0.70
     Davidson diagonalization with overlap
     ethr =  3.78E-12,  avg # of iterations =  2.3

     negative rho (up, down):  4.853E-04 0.000E+00

     total cpu time spent up to now is     3902.1 secs

     total energy              =    -176.32079691 Ry
     estimated scf accuracy    <          7.1E-11 Ry

     iteration #  7     ecut=    60.00 Ry     beta= 0.70
     Davidson diagonalization with overlap
     ethr =  2.21E-13,  avg # of iterations =  3.0

     negative rho (up, down):  4.853E-04 0.000E+00

     total cpu time spent up to now is     3908.0 secs

     total energy              =    -176.32079691 Ry
     estimated scf accuracy    <          2.8E-11 Ry

     iteration #  8     ecut=    60.00 Ry     beta= 0.70
     Davidson diagonalization with overlap
     ethr =  1.00E-13,  avg # of iterations =  2.3

     negative rho (up, down):  4.853E-04 0.000E+00

     total cpu time spent up to now is     3913.6 secs

     total energy              =    -176.32079691 Ry
     estimated scf accuracy    <          1.4E-12 Ry

     iteration #  9     ecut=    60.00 Ry     beta= 0.70
     Davidson diagonalization with overlap
     ethr =  1.00E-13,  avg # of iterations =  1.0

     negative rho (up, down):  4.853E-04 0.000E+00

     total cpu time spent up to now is     3917.8 secs

     End of self-consistent calculation

          k = 0.0000 0.0000 0.0000 ( 18047 PWs)   bands (ev):

   -24.6610 -24.2360 -23.4600 -23.0921 -12.0458 -11.9126 -11.8936 -11.8298
   -10.1209  -9.0454  -7.5420  -7.0276  -6.4401  -6.4208  -6.3331  -6.1859

          k =-0.0153 0.2863 0.0000 ( 18132 PWs)   bands (ev):

   -24.5247 -24.1039 -23.6311 -23.2564 -12.1656 -12.1164 -11.6817 -11.5986
    -9.8895  -8.9628  -7.7358  -7.3531  -6.5534  -6.4531  -6.2237  -6.1061

          k = 0.0307-0.5725 0.0000 ( 18166 PWs)   bands (ev):

   -24.2967 -23.9070 -23.8655 -23.5127 -12.2290 -12.2130 -11.5519 -11.4523
    -9.5825  -8.8368  -7.9879  -7.7502  -6.6075  -6.4502  -6.1338  -6.0354

          k = 0.2575-0.1328 0.0000 ( 18109 PWs)   bands (ev):

   -24.5236 -24.1030 -23.6313 -23.2567 -12.1899 -12.1382 -11.6495 -11.6078
    -9.8813  -8.9618  -7.7373  -7.3516  -6.5492  -6.4473  -6.2153  -6.1060

          k = 0.2421 0.1535 0.0000 ( 18132 PWs)   bands (ev):

   -24.5242 -24.1097 -23.6311 -23.2498 -12.0888 -11.9480 -11.9163 -11.6992
    -9.7845  -8.8602  -7.9035  -7.4089  -6.4162  -6.3270  -6.2534  -6.2286

          k = 0.2882-0.7053 0.0000 ( 18147 PWs)   bands (ev):

   -24.2955 -23.9266 -23.8592 -23.4992 -12.2032 -12.1628 -11.6674 -11.5077
    -9.4175  -8.6177  -8.2669  -7.8608  -6.5183  -6.4015  -6.1301  -6.0672

          k = 0.2728-0.4190 0.0000 ( 18128 PWs)   bands (ev):

   -24.2951 -23.9077 -23.8640 -23.5135 -12.2597 -12.2396 -11.5216 -11.4528
    -9.5513  -8.8006  -8.0119  -7.8037  -6.5851  -6.4557  -6.0971  -6.0416

          k =-0.5150 0.2656 0.0000 ( 18184 PWs)   bands (ev):

   -24.2927 -23.9088 -23.8624 -23.5149 -12.2728 -12.2357 -11.5258 -11.4585
    -9.5706  -8.8380  -7.9862  -7.7356  -6.5954  -6.4481  -6.1202  -6.0306

          k =-0.5303 0.5518 0.0000 ( 18128 PWs)   bands (ev):

   -24.2934 -23.9272 -23.8581 -23.5003 -12.2245 -12.1796 -11.6531 -11.5054
    -9.4110  -8.6208  -8.2667  -7.8553  -6.5129  -6.3995  -6.1216  -6.0655

          k =-0.4843-0.3070 0.0000 ( 18166 PWs)   bands (ev):

   -24.2929 -23.9471 -23.8516 -23.4877 -12.1317 -11.9671 -11.9277 -11.6000
    -9.2328  -8.6768  -8.1774  -8.0462  -6.3704  -6.3058  -6.2004  -6.1881

     highest occupied level (ev):    -6.0306

!    total energy              =    -176.32079691 Ry

     total all-electron energy =      -611.708342 Ry
     estimated scf accuracy    <          7.6E-13 Ry

     The total energy is the sum of the following terms:
     one-electron contribution =    -668.58673415 Ry
     hartree contribution      =     342.31722109 Ry
     xc contribution           =     -35.63010881 Ry
     ewald contribution        =     223.92964569 Ry
     one-center paw contrib.   =     -38.35082073 Ry

     convergence has been achieved in   9 iterations

     negative rho (up, down):  4.853E-04 0.000E+00

     Forces acting on atoms (cartesian axes, Ry/au):

     atom    1 type  1   force =     0.00053127   -0.00008238    0.00012189
     atom    2 type  1   force =    -0.00036299   -0.00086183    0.00013756
     atom    3 type  1   force =    -0.00017320   -0.00006188    0.00004785
     atom    4 type  1   force =    -0.00003727   -0.00074025    0.00015619
     atom    5 type  1   force =    -0.00008627    0.00057382   -0.00022202
     atom    6 type  1   force =     0.00037097   -0.00033747   -0.00055405
     atom    7 type  1   force =    -0.00038411    0.00077152   -0.00036831
     atom    8 type  1   force =    -0.00106973   -0.00062853    0.00039558
     atom    9 type  2   force =    -0.00012122    0.00062610    0.00070810
     atom   10 type  2   force =    -0.00020518    0.00004271   -0.00081413
     atom   11 type  2   force =     0.00021457    0.00010181    0.00054168
     atom   12 type  2   force =     0.00132317    0.00059638   -0.00015033

     Total force =     0.003069     Total SCF correction =     0.000001
     Energy error            =      1.5E-05 Ry
     Gradient error          =      1.3E-03 Ry/Bohr

     number of scf cycles    =  50
     number of bfgs steps    =  48

     energy             old  =    -176.3207819761 Ry
     energy             new  =    -176.3207969096 Ry

     CASE: energy            _new < energy            _old

     new trust radius        =       0.0063129858 bohr
     new conv_thr            =            1.0E-12 Ry


ATOMIC_POSITIONS (angstrom)
H             4.4700736878        3.7323506246       11.2089315334
H             5.3202097215        4.3076964065       10.0063486111
H             3.2976151772        1.1690277250        8.0874360073
H             3.1497331697        2.8708728068        9.3340003963
H             3.9961866491        3.4291933278        8.1254223179
H             6.3341291931        3.9956386306        8.0965030316
H             3.0024493685        1.8033051829       11.2549746070
H             2.1339835663        3.1779874172       11.2461136513
O             5.2877608883        4.2696449716       11.0068637293
O             3.1782023407        2.8958057505        8.3332113318
O             5.4271808956        4.3804418578        8.2557355435
O             3.0378617929        2.7861420566       11.0841453175



     Writing config-only to output data dir ./output/f-BH.save/
     NEW-OLD atomic charge density approx. for the potential

     negative rho (up, down):  4.842E-04 0.000E+00

     total cpu time spent up to now is     3930.4 secs

     per-process dynamical memory:   210.2 Mb

     Self-consistent Calculation

     iteration #  1     ecut=    60.00 Ry     beta= 0.70
     Davidson diagonalization with overlap
     ethr =  1.00E-06,  avg # of iterations =  3.0

     Threshold (ethr) on eigenvalues was too large:
     Diagonalizing with lowered threshold

     Davidson diagonalization with overlap
     ethr =  3.63E-08,  avg # of iterations =  2.0

     negative rho (up, down):  4.846E-04 0.000E+00

     total cpu time spent up to now is     3942.0 secs

     total energy              =    -176.32080851 Ry
     estimated scf accuracy    <       0.00001325 Ry

     iteration #  2     ecut=    60.00 Ry     beta= 0.70
     Davidson diagonalization with overlap
     ethr =  4.14E-08,  avg # of iterations =  2.0

     negative rho (up, down):  4.848E-04 0.000E+00

     total cpu time spent up to now is     3947.4 secs

     total energy              =    -176.32081004 Ry
     estimated scf accuracy    <       0.00000094 Ry

     iteration #  3     ecut=    60.00 Ry     beta= 0.70
     Davidson diagonalization with overlap
     ethr =  2.93E-09,  avg # of iterations =  2.0

     negative rho (up, down):  4.849E-04 0.000E+00

     total cpu time spent up to now is     3953.0 secs

     total energy              =    -176.32081018 Ry
     estimated scf accuracy    <       0.00000022 Ry

     iteration #  4     ecut=    60.00 Ry     beta= 0.70
     Davidson diagonalization with overlap
     ethr =  6.76E-10,  avg # of iterations =  2.0

     negative rho (up, down):  4.849E-04 0.000E+00

     total cpu time spent up to now is     3958.5 secs

     total energy              =    -176.32081023 Ry
     estimated scf accuracy    <       0.00000001 Ry

     iteration #  5     ecut=    60.00 Ry     beta= 0.70
     Davidson diagonalization with overlap
     ethr =  3.25E-11,  avg # of iterations =  2.0

     negative rho (up, down):  4.849E-04 0.000E+00

     total cpu time spent up to now is     3964.1 secs

     total energy              =    -176.32081023 Ry
     estimated scf accuracy    <          1.9E-09 Ry

     iteration #  6     ecut=    60.00 Ry     beta= 0.70
     Davidson diagonalization with overlap
     ethr =  5.90E-12,  avg # of iterations =  2.0

     negative rho (up, down):  4.849E-04 0.000E+00

     total cpu time spent up to now is     3969.8 secs

     total energy              =    -176.32081023 Ry
     estimated scf accuracy    <          9.1E-11 Ry

     iteration #  7     ecut=    60.00 Ry     beta= 0.70
     Davidson diagonalization with overlap
     ethr =  2.86E-13,  avg # of iterations =  3.0

     negative rho (up, down):  4.849E-04 0.000E+00

     total cpu time spent up to now is     3976.5 secs

     total energy              =    -176.32081023 Ry
     estimated scf accuracy    <          4.3E-11 Ry

     iteration #  8     ecut=    60.00 Ry     beta= 0.70
     Davidson diagonalization with overlap
     ethr =  1.36E-13,  avg # of iterations =  2.4

     negative rho (up, down):  4.849E-04 0.000E+00

     total cpu time spent up to now is     3982.1 secs

     total energy              =    -176.32081023 Ry
     estimated scf accuracy    <          1.2E-12 Ry

     iteration #  9     ecut=    60.00 Ry     beta= 0.70
     Davidson diagonalization with overlap
     ethr =  1.00E-13,  avg # of iterations =  1.0

     negative rho (up, down):  4.849E-04 0.000E+00

     total cpu time spent up to now is     3986.4 secs

     End of self-consistent calculation

          k = 0.0000 0.0000 0.0000 ( 18047 PWs)   bands (ev):

   -24.6568 -24.2344 -23.4561 -23.0901 -12.0396 -11.9086 -11.8929 -11.8275
   -10.1163  -9.0455  -7.5383  -7.0241  -6.4375  -6.4189  -6.3311  -6.1856

          k =-0.0153 0.2863 0.0000 ( 18132 PWs)   bands (ev):

   -24.5204 -24.1023 -23.6271 -23.2544 -12.1612 -12.1138 -11.6762 -11.5970
    -9.8851  -8.9633  -7.7329  -7.3501  -6.5507  -6.4514  -6.2218  -6.1049

          k = 0.0307-0.5725 0.0000 ( 18166 PWs)   bands (ev):

   -24.2923 -23.9031 -23.8640 -23.5107 -12.2246 -12.2106 -11.5456 -11.4505
    -9.5782  -8.8377  -7.9859  -7.7470  -6.6046  -6.4494  -6.1317  -6.0334

          k = 0.2575-0.1328 0.0000 ( 18109 PWs)   bands (ev):

   -24.5195 -24.1014 -23.6271 -23.2546 -12.1845 -12.1365 -11.6465 -11.6044
    -9.8780  -8.9621  -7.7323  -7.3470  -6.5481  -6.4451  -6.2135  -6.1059

          k = 0.2421 0.1535 0.0000 ( 18132 PWs)   bands (ev):

   -24.5198 -24.1077 -23.6273 -23.2481 -12.0822 -11.9444 -11.9127 -11.6992
    -9.7802  -8.8595  -7.9003  -7.4063  -6.4148  -6.3243  -6.2512  -6.2283

          k = 0.2882-0.7053 0.0000 ( 18147 PWs)   bands (ev):

   -24.2909 -23.9226 -23.8574 -23.4979 -12.1979 -12.1598 -11.6622 -11.5065
    -9.4130  -8.6175  -8.2643  -7.8584  -6.5160  -6.4010  -6.1283  -6.0647

          k = 0.2728-0.4190 0.0000 ( 18128 PWs)   bands (ev):

   -24.2911 -23.9034 -23.8627 -23.5112 -12.2539 -12.2385 -11.5167 -11.4503
    -9.5485  -8.8016  -8.0078  -7.7988  -6.5837  -6.4541  -6.0953  -6.0402

          k =-0.5150 0.2656 0.0000 ( 18184 PWs)   bands (ev):

   -24.2891 -23.9042 -23.8613 -23.5123 -12.2674 -12.2343 -11.5226 -11.4548
    -9.5694  -8.8387  -7.9797  -7.7291  -6.5952  -6.4461  -6.1184  -6.0304

          k =-0.5303 0.5518 0.0000 ( 18128 PWs)   bands (ev):

   -24.2892 -23.9229 -23.8564 -23.4987 -12.2185 -12.1774 -11.6489 -11.5039
    -9.4085  -8.6210  -8.2614  -7.8511  -6.5126  -6.3975  -6.1193  -6.0646

          k =-0.4843-0.3070 0.0000 ( 18166 PWs)   bands (ev):

   -24.2882 -23.9429 -23.8498 -23.4870 -12.1250 -11.9618 -11.9249 -11.6003
    -9.2283  -8.6725  -8.1790  -8.0432  -6.3698  -6.3052  -6.1985  -6.1846

     highest occupied level (ev):    -6.0304

!    total energy              =    -176.32081023 Ry

     total all-electron energy =      -611.708355 Ry
     estimated scf accuracy    <          9.0E-13 Ry

     The total energy is the sum of the following terms:
     one-electron contribution =    -668.24683220 Ry
     hartree contribution      =     342.14966306 Ry
     xc contribution           =     -35.62893668 Ry
     ewald contribution        =     223.75612038 Ry
     one-center paw contrib.   =     -38.35082479 Ry

     convergence has been achieved in   9 iterations

     negative rho (up, down):  4.849E-04 0.000E+00

     Forces acting on atoms (cartesian axes, Ry/au):

     atom    1 type  1   force =     0.00058974    0.00011825   -0.00040041
     atom    2 type  1   force =    -0.00071299   -0.00118032    0.00044628
     atom    3 type  1   force =    -0.00020595    0.00018614    0.00004754
     atom    4 type  1   force =    -0.00006829   -0.00051996   -0.00003673
     atom    5 type  1   force =    -0.00002801    0.00042250   -0.00004767
     atom    6 type  1   force =     0.00028037   -0.00050965   -0.00039560
     atom    7 type  1   force =    -0.00026619    0.00067349   -0.00019733
     atom    8 type  1   force =    -0.00032861   -0.00073337    0.00012970
     atom    9 type  2   force =     0.00034439    0.00082754    0.00071905
     atom   10 type  2   force =    -0.00022403    0.00016837   -0.00052983
     atom   11 type  2   force =     0.00032064   -0.00000831    0.00042845
     atom   12 type  2   force =     0.00029893    0.00055532   -0.00016345

     Total force =     0.002697     Total SCF correction =     0.000001
     Energy error            =      1.3E-05 Ry
     Gradient error          =      1.2E-03 Ry/Bohr

     number of scf cycles    =  51
     number of bfgs steps    =  49

     energy             old  =    -176.3207969096 Ry
     energy             new  =    -176.3208102271 Ry

     CASE: energy            _new < energy            _old

     new trust radius        =       0.0068696893 bohr
     new conv_thr            =            1.0E-12 Ry


ATOMIC_POSITIONS (angstrom)
H             4.4706392990        3.7328958794       11.2119176392
H             5.3202074523        4.3077809439       10.0087429900
H             3.2963475753        1.1673216324        8.0863221175
H             3.1503228952        2.8685266432        9.3312869073
H             3.9952479226        3.4284464799        8.1225852418
H             6.3335085970        3.9945308050        8.0949552084
H             3.0033213341        1.8061584196       11.2547101196
H             2.1342995361        3.1791767782       11.2479284846
O             5.2875038134        4.2713696760       11.0092947146
O             3.1779495037        2.8937801665        8.3304366564
O             5.4267723758        4.3791195456        8.2565674644
O             3.0392661462        2.7889997882       11.0849385341



     Writing config-only to output data dir ./output/f-BH.save/
     NEW-OLD atomic charge density approx. for the potential

     negative rho (up, down):  4.838E-04 0.000E+00

     total cpu time spent up to now is     3999.0 secs

     per-process dynamical memory:   210.7 Mb

     Self-consistent Calculation

     iteration #  1     ecut=    60.00 Ry     beta= 0.70
     Davidson diagonalization with overlap
     ethr =  1.00E-06,  avg # of iterations =  3.0

     Threshold (ethr) on eigenvalues was too large:
     Diagonalizing with lowered threshold

     Davidson diagonalization with overlap
     ethr =  4.36E-08,  avg # of iterations =  2.0

     negative rho (up, down):  4.841E-04 0.000E+00

     total cpu time spent up to now is     4010.6 secs

     total energy              =    -176.32082132 Ry
     estimated scf accuracy    <       0.00001594 Ry

     iteration #  2     ecut=    60.00 Ry     beta= 0.70
     Davidson diagonalization with overlap
     ethr =  4.98E-08,  avg # of iterations =  2.0

     negative rho (up, down):  4.843E-04 0.000E+00

     total cpu time spent up to now is     4015.9 secs

     total energy              =    -176.32082315 Ry
     estimated scf accuracy    <       0.00000107 Ry

     iteration #  3     ecut=    60.00 Ry     beta= 0.70
     Davidson diagonalization with overlap
     ethr =  3.36E-09,  avg # of iterations =  2.0

     negative rho (up, down):  4.844E-04 0.000E+00

     total cpu time spent up to now is     4021.5 secs

     total energy              =    -176.32082331 Ry
     estimated scf accuracy    <       0.00000024 Ry

     iteration #  4     ecut=    60.00 Ry     beta= 0.70
     Davidson diagonalization with overlap
     ethr =  7.36E-10,  avg # of iterations =  2.1

     negative rho (up, down):  4.844E-04 0.000E+00

     total cpu time spent up to now is     4027.0 secs

     total energy              =    -176.32082336 Ry
     estimated scf accuracy    <       0.00000001 Ry

     iteration #  5     ecut=    60.00 Ry     beta= 0.70
     Davidson diagonalization with overlap
     ethr =  4.39E-11,  avg # of iterations =  2.0

     negative rho (up, down):  4.844E-04 0.000E+00

     total cpu time spent up to now is     4032.5 secs

     total energy              =    -176.32082336 Ry
     estimated scf accuracy    <          2.0E-09 Ry

     iteration #  6     ecut=    60.00 Ry     beta= 0.70
     Davidson diagonalization with overlap
     ethr =  6.39E-12,  avg # of iterations =  2.1

     negative rho (up, down):  4.844E-04 0.000E+00

     total cpu time spent up to now is     4038.2 secs

     total energy              =    -176.32082336 Ry
     estimated scf accuracy    <          9.5E-11 Ry

     iteration #  7     ecut=    60.00 Ry     beta= 0.70
     Davidson diagonalization with overlap
     ethr =  2.97E-13,  avg # of iterations =  3.1

     negative rho (up, down):  4.844E-04 0.000E+00

     total cpu time spent up to now is     4044.5 secs

     total energy              =    -176.32082336 Ry
     estimated scf accuracy    <          4.2E-11 Ry

     iteration #  8     ecut=    60.00 Ry     beta= 0.70
     Davidson diagonalization with overlap
     ethr =  1.31E-13,  avg # of iterations =  2.7

     negative rho (up, down):  4.844E-04 0.000E+00

     total cpu time spent up to now is     4050.4 secs

     total energy              =    -176.32082336 Ry
     estimated scf accuracy    <          2.4E-12 Ry

     iteration #  9     ecut=    60.00 Ry     beta= 0.70
     Davidson diagonalization with overlap
     ethr =  1.00E-13,  avg # of iterations =  1.0

     negative rho (up, down):  4.844E-04 0.000E+00

     total cpu time spent up to now is     4054.6 secs

     total energy              =    -176.32082336 Ry
     estimated scf accuracy    <          1.2E-12 Ry

     iteration # 10     ecut=    60.00 Ry     beta= 0.70
     Davidson diagonalization with overlap
     ethr =  1.00E-13,  avg # of iterations =  1.0

     negative rho (up, down):  4.844E-04 0.000E+00

     total cpu time spent up to now is     4058.9 secs

     End of self-consistent calculation

          k = 0.0000 0.0000 0.0000 ( 18047 PWs)   bands (ev):

   -24.6534 -24.2338 -23.4528 -23.0889 -12.0336 -11.9034 -11.8900 -11.8238
   -10.1137  -9.0477  -7.5361  -7.0224  -6.4358  -6.4169  -6.3298  -6.1854

          k =-0.0153 0.2863 0.0000 ( 18132 PWs)   bands (ev):

   -24.5170 -24.1017 -23.6239 -23.2533 -12.1568 -12.1101 -11.6691 -11.5937
    -9.8824  -8.9654  -7.7321  -7.3490  -6.5484  -6.4505  -6.2202  -6.1038

          k = 0.0307-0.5725 0.0000 ( 18166 PWs)   bands (ev):

   -24.2889 -23.9011 -23.8623 -23.5095 -12.2207 -12.2069 -11.5376 -11.4469
    -9.5747  -8.8395  -7.9871  -7.7464  -6.6021  -6.4494  -6.1299  -6.0316

          k = 0.2575-0.1328 0.0000 ( 18109 PWs)   bands (ev):

   -24.5163 -24.1010 -23.6237 -23.2533 -12.1783 -12.1338 -11.6427 -11.5992
    -9.8766  -8.9642  -7.7289  -7.3438  -6.5475  -6.4437  -6.2122  -6.1060

          k = 0.2421 0.1535 0.0000 ( 18132 PWs)   bands (ev):

   -24.5164 -24.1069 -23.6241 -23.2473 -12.0759 -11.9392 -11.9078 -11.6971
    -9.7779  -8.8611  -7.8984  -7.4052  -6.4134  -6.3225  -6.2496  -6.2278

          k = 0.2882-0.7053 0.0000 ( 18147 PWs)   bands (ev):

   -24.2873 -23.9206 -23.8553 -23.4974 -12.1929 -12.1555 -11.6555 -11.5033
    -9.4099  -8.6190  -8.2640  -7.8582  -6.5141  -6.4009  -6.1269  -6.0626

          k = 0.2728-0.4190 0.0000 ( 18128 PWs)   bands (ev):

   -24.2880 -23.9012 -23.8611 -23.5097 -12.2472 -12.2371 -11.5104 -11.4460
    -9.5471  -8.8036  -8.0064  -7.7959  -6.5828  -6.4532  -6.0940  -6.0391

          k =-0.5150 0.2656 0.0000 ( 18184 PWs)   bands (ev):

   -24.2864 -23.9016 -23.8599 -23.5106 -12.2608 -12.2321 -11.5187 -11.4495
    -9.5700  -8.8408  -7.9753  -7.7240  -6.5956  -6.4448  -6.1171  -6.0307

          k =-0.5303 0.5518 0.0000 ( 18128 PWs)   bands (ev):

   -24.2860 -23.9207 -23.8544 -23.4979 -12.2121 -12.1740 -11.6435 -11.5005
    -9.4080  -8.6234  -8.2577  -7.8484  -6.5127  -6.3959  -6.1176  -6.0641

          k =-0.4843-0.3070 0.0000 ( 18166 PWs)   bands (ev):

   -24.2845 -23.9405 -23.8477 -23.4870 -12.1185 -11.9561 -11.9199 -11.5985
    -9.2258  -8.6717  -8.1807  -8.0420  -6.3692  -6.3043  -6.1982  -6.1810

     highest occupied level (ev):    -6.0307

!    total energy              =    -176.32082336 Ry

     total all-electron energy =      -611.708368 Ry
     estimated scf accuracy    <          2.3E-14 Ry

     The total energy is the sum of the following terms:
     one-electron contribution =    -667.89344657 Ry
     hartree contribution      =     341.97481626 Ry
     xc contribution           =     -35.62780439 Ry
     ewald contribution        =     223.57645521 Ry
     one-center paw contrib.   =     -38.35084387 Ry

     convergence has been achieved in  10 iterations

     negative rho (up, down):  4.844E-04 0.000E+00

     Forces acting on atoms (cartesian axes, Ry/au):

     atom    1 type  1   force =     0.00047836    0.00030043   -0.00052521
     atom    2 type  1   force =    -0.00073853   -0.00118891    0.00060400
     atom    3 type  1   force =    -0.00012078    0.00028364    0.00006273
     atom    4 type  1   force =    -0.00012824   -0.00021300   -0.00025162
     atom    5 type  1   force =    -0.00002876    0.00022313    0.00010759
     atom    6 type  1   force =     0.00003255   -0.00049304   -0.00019671
     atom    7 type  1   force =    -0.00005619    0.00037914   -0.00000260
     atom    8 type  1   force =     0.00043160   -0.00059333   -0.00015161
     atom    9 type  2   force =     0.00063079    0.00074818    0.00049750
     atom   10 type  2   force =    -0.00016311    0.00029244   -0.00021101
     atom   11 type  2   force =     0.00042848   -0.00021045    0.00027375
     atom   12 type  2   force =    -0.00076615    0.00047176   -0.00020681

     Total force =     0.002591     Total SCF correction =     0.000000
     Energy error            =      1.3E-05 Ry
     Gradient error          =      1.2E-03 Ry/Bohr

     number of scf cycles    =  52
     number of bfgs steps    =  50

     energy             old  =    -176.3208102271 Ry
     energy             new  =    -176.3208233590 Ry

     CASE: energy            _new < energy            _old

     new trust radius        =       0.0067429145 bohr
     new conv_thr            =            1.0E-12 Ry


ATOMIC_POSITIONS (angstrom)
H             4.4720105377        3.7341172177       11.2142385656
H             5.3198920188        4.3070147069       10.0110879424
H             3.2951835243        1.1656058577        8.0854952595
H             3.1505772868        2.8663178289        9.3288243786
H             3.9941542288        3.4275989919        8.1201239833
H             6.3327684034        3.9926457266        8.0934517182
H             3.0042061859        1.8090280890       11.2544781806
H             2.1346020788        3.1803138378       11.2496174366
O             5.2878762999        4.2740167821       11.0116582100
O             3.1773435179        2.8919542131        8.3279034651
O             5.4264887865        4.3775755167        8.2572611683
O             3.0402835820        2.7919179897       11.0855457696



     Writing config-only to output data dir ./output/f-BH.save/
     NEW-OLD atomic charge density approx. for the potential

     negative rho (up, down):  4.833E-04 0.000E+00

     total cpu time spent up to now is     4071.6 secs

     per-process dynamical memory:   210.7 Mb

     Self-consistent Calculation

     iteration #  1     ecut=    60.00 Ry     beta= 0.70
     Davidson diagonalization with overlap
     ethr =  1.00E-06,  avg # of iterations =  3.0

     Threshold (ethr) on eigenvalues was too large:
     Diagonalizing with lowered threshold

     Davidson diagonalization with overlap
     ethr =  4.39E-08,  avg # of iterations =  2.0

     negative rho (up, down):  4.836E-04 0.000E+00

     total cpu time spent up to now is     4083.3 secs

     total energy              =    -176.32083236 Ry
     estimated scf accuracy    <       0.00001595 Ry

     iteration #  2     ecut=    60.00 Ry     beta= 0.70
     Davidson diagonalization with overlap
     ethr =  4.98E-08,  avg # of iterations =  2.0

     negative rho (up, down):  4.837E-04 0.000E+00

     total cpu time spent up to now is     4088.5 secs

     total energy              =    -176.32083416 Ry
     estimated scf accuracy    <       0.00000115 Ry

     iteration #  3     ecut=    60.00 Ry     beta= 0.70
     Davidson diagonalization with overlap
     ethr =  3.58E-09,  avg # of iterations =  2.0

     negative rho (up, down):  4.837E-04 0.000E+00

     total cpu time spent up to now is     4094.1 secs

     total energy              =    -176.32083434 Ry
     estimated scf accuracy    <       0.00000031 Ry

     iteration #  4     ecut=    60.00 Ry     beta= 0.70
     Davidson diagonalization with overlap
     ethr =  9.66E-10,  avg # of iterations =  2.0

     negative rho (up, down):  4.837E-04 0.000E+00

     total cpu time spent up to now is     4099.6 secs

     total energy              =    -176.32083440 Ry
     estimated scf accuracy    <       0.00000001 Ry

     iteration #  5     ecut=    60.00 Ry     beta= 0.70
     Davidson diagonalization with overlap
     ethr =  4.63E-11,  avg # of iterations =  2.1

     negative rho (up, down):  4.838E-04 0.000E+00

     total cpu time spent up to now is     4105.1 secs

     total energy              =    -176.32083440 Ry
     estimated scf accuracy    <          3.2E-09 Ry

     iteration #  6     ecut=    60.00 Ry     beta= 0.70
     Davidson diagonalization with overlap
     ethr =  9.94E-12,  avg # of iterations =  2.0

     negative rho (up, down):  4.837E-04 0.000E+00

     total cpu time spent up to now is     4110.6 secs

     total energy              =    -176.32083440 Ry
     estimated scf accuracy    <          1.6E-10 Ry

     iteration #  7     ecut=    60.00 Ry     beta= 0.70
     Davidson diagonalization with overlap
     ethr =  4.92E-13,  avg # of iterations =  3.4

     negative rho (up, down):  4.837E-04 0.000E+00

     total cpu time spent up to now is     4117.3 secs

     total energy              =    -176.32083440 Ry
     estimated scf accuracy    <          7.6E-11 Ry

     iteration #  8     ecut=    60.00 Ry     beta= 0.70
     Davidson diagonalization with overlap
     ethr =  2.38E-13,  avg # of iterations =  3.0

     negative rho (up, down):  4.837E-04 0.000E+00

     total cpu time spent up to now is     4123.1 secs

     total energy              =    -176.32083440 Ry
     estimated scf accuracy    <          1.4E-12 Ry

     iteration #  9     ecut=    60.00 Ry     beta= 0.70
     Davidson diagonalization with overlap
     ethr =  1.00E-13,  avg # of iterations =  1.0

     negative rho (up, down):  4.837E-04 0.000E+00

     total cpu time spent up to now is     4127.3 secs

     End of self-consistent calculation

          k = 0.0000 0.0000 0.0000 ( 18047 PWs)   bands (ev):

   -24.6514 -24.2344 -23.4508 -23.0888 -12.0295 -11.8977 -11.8859 -11.8193
   -10.1124  -9.0516  -7.5354  -7.0226  -6.4350  -6.4147  -6.3296  -6.1846

          k =-0.0153 0.2863 0.0000 ( 18132 PWs)   bands (ev):

   -24.5150 -24.1023 -23.6218 -23.2532 -12.1534 -12.1061 -11.6616 -11.5900
    -9.8804  -8.9684  -7.7335  -7.3503  -6.5467  -6.4500  -6.2188  -6.1025

          k = 0.0307-0.5725 0.0000 ( 18166 PWs)   bands (ev):

   -24.2869 -23.9023 -23.8598 -23.5094 -12.2187 -12.2019 -11.5294 -11.4431
    -9.5711  -8.8407  -7.9913  -7.7493  -6.5999  -6.4497  -6.1280  -6.0298

          k = 0.2575-0.1328 0.0000 ( 18109 PWs)   bands (ev):

   -24.5143 -24.1016 -23.6215 -23.2532 -12.1729 -12.1301 -11.6393 -11.5931
    -9.8763  -8.9677  -7.7275  -7.3425  -6.5470  -6.4435  -6.2115  -6.1056

          k = 0.2421 0.1535 0.0000 ( 18132 PWs)   bands (ev):

   -24.5144 -24.1075 -23.6219 -23.2474 -12.0716 -11.9334 -11.9033 -11.6931
    -9.7770  -8.8650  -7.8977  -7.4057  -6.4114  -6.3219  -6.2494  -6.2267

          k = 0.2882-0.7053 0.0000 ( 18147 PWs)   bands (ev):

   -24.2854 -23.9216 -23.8525 -23.4975 -12.1897 -12.1507 -11.6489 -11.4990
    -9.4074  -8.6212  -8.2658  -7.8606  -6.5123  -6.4009  -6.1257  -6.0609

          k = 0.2728-0.4190 0.0000 ( 18128 PWs)   bands (ev):

   -24.2861 -23.9021 -23.8587 -23.5095 -12.2426 -12.2336 -11.5045 -11.4413
    -9.5457  -8.8055  -8.0080  -7.7958  -6.5820  -6.4531  -6.0929  -6.0380

          k =-0.5150 0.2656 0.0000 ( 18184 PWs)   bands (ev):

   -24.2847 -23.9023 -23.8577 -23.5103 -12.2547 -12.2289 -11.5151 -11.4436
    -9.5710  -8.8433  -7.9739  -7.7214  -6.5959  -6.4446  -6.1162  -6.0309

          k =-0.5303 0.5518 0.0000 ( 18128 PWs)   bands (ev):

   -24.2842 -23.9216 -23.8516 -23.4980 -12.2071 -12.1695 -11.6385 -11.4960
    -9.4083  -8.6273  -8.2559  -7.8475  -6.5126  -6.3949  -6.1165  -6.0638

          k =-0.4843-0.3070 0.0000 ( 18166 PWs)   bands (ev):

   -24.2826 -23.9413 -23.8448 -23.4875 -12.1141 -11.9518 -11.9132 -11.5947
    -9.2248  -8.6753  -8.1806  -8.0426  -6.3681  -6.3029  -6.1987  -6.1793

     highest occupied level (ev):    -6.0298

!    total energy              =    -176.32083440 Ry

     total all-electron energy =      -611.708379 Ry
     estimated scf accuracy    <          5.8E-13 Ry

     The total energy is the sum of the following terms:
     one-electron contribution =    -667.57463286 Ry
     hartree contribution      =     341.81666749 Ry
     xc contribution           =     -35.62709436 Ry
     ewald contribution        =     223.41509663 Ry
     one-center paw contrib.   =     -38.35087131 Ry

     convergence has been achieved in   9 iterations

     negative rho (up, down):  4.837E-04 0.000E+00

     Forces acting on atoms (cartesian axes, Ry/au):

     atom    1 type  1   force =     0.00020935    0.00042746   -0.00022438
     atom    2 type  1   force =    -0.00042483   -0.00086024    0.00050356
     atom    3 type  1   force =     0.00003580    0.00012529    0.00008906
     atom    4 type  1   force =    -0.00021822    0.00006981   -0.00044220
     atom    5 type  1   force =    -0.00000951    0.00008085    0.00019640
     atom    6 type  1   force =    -0.00010423   -0.00035137   -0.00003524
     atom    7 type  1   force =     0.00013169    0.00018143    0.00012091
     atom    8 type  1   force =     0.00079207   -0.00025985   -0.00033221
     atom    9 type  2   force =     0.00058852    0.00035796    0.00016568
     atom   10 type  2   force =    -0.00005871    0.00031430    0.00012081
     atom   11 type  2   force =     0.00028975   -0.00026594    0.00014762
     atom   12 type  2   force =    -0.00123168    0.00018029   -0.00031000

     Total force =     0.002284     Total SCF correction =     0.000001
     Energy error            =      1.1E-05 Ry
     Gradient error          =      1.2E-03 Ry/Bohr

     number of scf cycles    =  53
     number of bfgs steps    =  51

     energy             old  =    -176.3208233590 Ry
     energy             new  =    -176.3208344017 Ry

     CASE: energy            _new < energy            _old

     new trust radius        =       0.0054269164 bohr
     new conv_thr            =            1.0E-12 Ry


ATOMIC_POSITIONS (angstrom)
H             4.4735205121        3.7356163817       11.2153923965
H             5.3195968678        4.3058868168       10.0125042188
H             3.2946794939        1.1643415861        8.0851550694
H             3.1503780977        2.8651330124        9.3273863291
H             3.9932485107        3.4268231644        8.1187897529
H             6.3321028947        3.9906951204        8.0925094415
H             3.0048842657        1.8109193086       11.2544361039
H             2.1349345832        3.1813429832       11.2506395325
O             5.2886846321        4.2763927294       11.0130541724
O             3.1766087372        2.8908853250        8.3265603586
O             5.4262848013        4.3763264815        8.2576021816
O             3.0404630543        2.7937438485       11.0856565206



     Writing config-only to output data dir ./output/f-BH.save/
     NEW-OLD atomic charge density approx. for the potential

     negative rho (up, down):  4.831E-04 0.000E+00

     total cpu time spent up to now is     4140.0 secs

     per-process dynamical memory:   210.2 Mb

     Self-consistent Calculation

     iteration #  1     ecut=    60.00 Ry     beta= 0.70
     Davidson diagonalization with overlap
     ethr =  1.00E-06,  avg # of iterations =  3.0

     Threshold (ethr) on eigenvalues was too large:
     Diagonalizing with lowered threshold

     Davidson diagonalization with overlap
     ethr =  1.87E-08,  avg # of iterations =  3.0

     negative rho (up, down):  4.833E-04 0.000E+00

     total cpu time spent up to now is     4151.7 secs

     total energy              =    -176.32083968 Ry
     estimated scf accuracy    <       0.00000753 Ry

     iteration #  2     ecut=    60.00 Ry     beta= 0.70
     Davidson diagonalization with overlap
     ethr =  2.35E-08,  avg # of iterations =  2.0

     negative rho (up, down):  4.833E-04 0.000E+00

     total cpu time spent up to now is     4156.9 secs

     total energy              =    -176.32084049 Ry
     estimated scf accuracy    <       0.00000078 Ry

     iteration #  3     ecut=    60.00 Ry     beta= 0.70
     Davidson diagonalization with overlap
     ethr =  2.44E-09,  avg # of iterations =  2.6

     negative rho (up, down):  4.833E-04 0.000E+00

     total cpu time spent up to now is     4162.8 secs

     total energy              =    -176.32084065 Ry
     estimated scf accuracy    <       0.00000028 Ry

     iteration #  4     ecut=    60.00 Ry     beta= 0.70
     Davidson diagonalization with overlap
     ethr =  8.90E-10,  avg # of iterations =  2.4

     negative rho (up, down):  4.834E-04 0.000E+00

     total cpu time spent up to now is     4168.0 secs

     total energy              =    -176.32084069 Ry
     estimated scf accuracy    <          5.3E-09 Ry

     iteration #  5     ecut=    60.00 Ry     beta= 0.70
     Davidson diagonalization with overlap
     ethr =  1.67E-11,  avg # of iterations =  4.7

     negative rho (up, down):  4.834E-04 0.000E+00

     total cpu time spent up to now is     4175.3 secs

     total energy              =    -176.32084069 Ry
     estimated scf accuracy    <          8.9E-09 Ry

     iteration #  6     ecut=    60.00 Ry     beta= 0.70
     Davidson diagonalization with overlap
     ethr =  1.67E-11,  avg # of iterations =  2.5

     negative rho (up, down):  4.834E-04 0.000E+00

     total cpu time spent up to now is     4180.9 secs

     total energy              =    -176.32084069 Ry
     estimated scf accuracy    <          5.1E-10 Ry

     iteration #  7     ecut=    60.00 Ry     beta= 0.70
     Davidson diagonalization with overlap
     ethr =  1.58E-12,  avg # of iterations =  4.1

     negative rho (up, down):  4.834E-04 0.000E+00

     total cpu time spent up to now is     4188.1 secs

     total energy              =    -176.32084069 Ry
     estimated scf accuracy    <          3.4E-10 Ry

     iteration #  8     ecut=    60.00 Ry     beta= 0.70
     Davidson diagonalization with overlap
     ethr =  1.05E-12,  avg # of iterations =  2.0

     negative rho (up, down):  4.834E-04 0.000E+00

     total cpu time spent up to now is     4193.1 secs

     total energy              =    -176.32084069 Ry
     estimated scf accuracy    <          2.7E-11 Ry

     iteration #  9     ecut=    60.00 Ry     beta= 0.70
     Davidson diagonalization with overlap
     ethr =  1.00E-13,  avg # of iterations =  3.2

     negative rho (up, down):  4.834E-04 0.000E+00

     total cpu time spent up to now is     4199.5 secs

     total energy              =    -176.32084069 Ry
     estimated scf accuracy    <          2.4E-12 Ry

     iteration # 10     ecut=    60.00 Ry     beta= 0.70
     Davidson diagonalization with overlap
     ethr =  1.00E-13,  avg # of iterations =  1.0

     negative rho (up, down):  4.834E-04 0.000E+00

     total cpu time spent up to now is     4203.7 secs

     End of self-consistent calculation

          k = 0.0000 0.0000 0.0000 ( 18047 PWs)   bands (ev):

   -24.6511 -24.2355 -23.4504 -23.0896 -12.0286 -11.8945 -11.8830 -11.8158
   -10.1118  -9.0547  -7.5357  -7.0234  -6.4347  -6.4125  -6.3300  -6.1834

          k =-0.0153 0.2863 0.0000 ( 18132 PWs)   bands (ev):

   -24.5147 -24.1035 -23.6213 -23.2540 -12.1520 -12.1037 -11.6573 -11.5878
    -9.8789  -8.9703  -7.7354  -7.3520  -6.5458  -6.4498  -6.2174  -6.1011

          k = 0.0307-0.5725 0.0000 ( 18166 PWs)   bands (ev):

   -24.2867 -23.9053 -23.8575 -23.5100 -12.2180 -12.1991 -11.5250 -11.4413
    -9.5681  -8.8402  -7.9956  -7.7528  -6.5986  -6.4498  -6.1262  -6.0283

          k = 0.2575-0.1328 0.0000 ( 18109 PWs)   bands (ev):

   -24.5139 -24.1028 -23.6212 -23.2540 -12.1703 -12.1276 -11.6377 -11.5892
    -9.8759  -8.9701  -7.7277  -7.3427  -6.5463  -6.4440  -6.2108  -6.1045

          k = 0.2421 0.1535 0.0000 ( 18132 PWs)   bands (ev):

   -24.5142 -24.1088 -23.6212 -23.2481 -12.0706 -11.9300 -11.9010 -11.6893
    -9.7767  -8.8682  -7.8976  -7.4063  -6.4094  -6.3219  -6.2498  -6.2254

          k = 0.2882-0.7053 0.0000 ( 18147 PWs)   bands (ev):

   -24.2854 -23.9246 -23.8501 -23.4980 -12.1888 -12.1480 -11.6454 -11.4961
    -9.4054  -8.6224  -8.2678  -7.8630  -6.5111  -6.4007  -6.1247  -6.0598

          k = 0.2728-0.4190 0.0000 ( 18128 PWs)   bands (ev):

   -24.2857 -23.9051 -23.8565 -23.5103 -12.2411 -12.2305 -11.5015 -11.4386
    -9.5440  -8.8057  -8.0108  -7.7974  -6.5813  -6.4534  -6.0919  -6.0367

          k =-0.5150 0.2656 0.0000 ( 18184 PWs)   bands (ev):

   -24.2841 -23.9053 -23.8555 -23.5113 -12.2515 -12.2267 -11.5133 -11.4401
    -9.5708  -8.8444  -7.9750  -7.7215  -6.5957  -6.4451  -6.1154  -6.0302

          k =-0.5303 0.5518 0.0000 ( 18128 PWs)   bands (ev):

   -24.2840 -23.9245 -23.8493 -23.4987 -12.2052 -12.1666 -11.6360 -11.4929
    -9.4081  -8.6298  -8.2558  -7.8478  -6.5121  -6.3945  -6.1158  -6.0633

          k =-0.4843-0.3070 0.0000 ( 18166 PWs)   bands (ev):

   -24.2829 -23.9440 -23.8424 -23.4879 -12.1131 -11.9509 -11.9083 -11.5913
    -9.2244  -8.6804  -8.1782  -8.0436  -6.3666  -6.3011  -6.1991  -6.1795

     highest occupied level (ev):    -6.0283

!    total energy              =    -176.32084069 Ry

     total all-electron energy =      -611.708386 Ry
     estimated scf accuracy    <          7.5E-13 Ry

     The total energy is the sum of the following terms:
     one-electron contribution =    -667.41220783 Ry
     hartree contribution      =     341.73621424 Ry
     xc contribution           =     -35.62728171 Ry
     ewald contribution        =     223.33332409 Ry
     one-center paw contrib.   =     -38.35088949 Ry

     convergence has been achieved in  10 iterations

     negative rho (up, down):  4.834E-04 0.000E+00

     Forces acting on atoms (cartesian axes, Ry/au):

     atom    1 type  1   force =    -0.00007212    0.00043945    0.00022836
     atom    2 type  1   force =    -0.00001811   -0.00041872    0.00024020
     atom    3 type  1   force =     0.00013888   -0.00009291    0.00011711
     atom    4 type  1   force =    -0.00029843    0.00020451   -0.00032859
     atom    5 type  1   force =     0.00003940    0.00006868    0.00020598
     atom    6 type  1   force =    -0.00015840   -0.00017036    0.00005455
     atom    7 type  1   force =     0.00014077    0.00002118    0.00016496
     atom    8 type  1   force =     0.00055742    0.00003243   -0.00033923
     atom    9 type  2   force =     0.00033041   -0.00008172   -0.00006347
     atom   10 type  2   force =     0.00001961    0.00023773    0.00010472
     atom   11 type  2   force =     0.00012599   -0.00026357    0.00007183
     atom   12 type  2   force =    -0.00080542    0.00002331   -0.00045643

     Total force =     0.001575     Total SCF correction =     0.000001
     Energy error            =      6.3E-06 Ry
     Gradient error          =      8.1E-04 Ry/Bohr

     number of scf cycles    =  54
     number of bfgs steps    =  52

     energy             old  =    -176.3208344017 Ry
     energy             new  =    -176.3208406946 Ry

     CASE: energy            _new < energy            _old

     new trust radius        =       0.0032277406 bohr
     new conv_thr            =            1.0E-12 Ry


ATOMIC_POSITIONS (angstrom)
H             4.4745652918        3.7368722250       11.2158911117
H             5.3195951655        4.3050605231       10.0129250681
H             3.2947413451        1.1635103782        8.0852893759
H             3.1498961698        2.8649977938        9.3269131263
H             3.9926510599        3.4263727710        8.1183718399
H             6.3316217089        3.9892249757        8.0920670201
H             3.0051364631        1.8116892708       11.2545589014
H             2.1352762483        3.1821942892       11.2509664630
O             5.2894660374        4.2777746418       11.0134377809
O             3.1760257295        2.8905080327        8.3261649768
O             5.4261707526        4.3754186538        8.2576714674
O             3.0402404790        2.7944832030       11.0854289464



     Writing config-only to output data dir ./output/f-BH.save/
     NEW-OLD atomic charge density approx. for the potential

     negative rho (up, down):  4.832E-04 0.000E+00

     total cpu time spent up to now is     4216.3 secs

     per-process dynamical memory:   210.7 Mb

     Self-consistent Calculation

     iteration #  1     ecut=    60.00 Ry     beta= 0.70
     Davidson diagonalization with overlap
     ethr =  1.00E-06,  avg # of iterations =  2.0

     Threshold (ethr) on eigenvalues was too large:
     Diagonalizing with lowered threshold

     Davidson diagonalization with overlap
     ethr =  5.16E-09,  avg # of iterations =  3.1

     negative rho (up, down):  4.832E-04 0.000E+00

     total cpu time spent up to now is     4228.0 secs

     total energy              =    -176.32084335 Ry
     estimated scf accuracy    <       0.00000242 Ry

     iteration #  2     ecut=    60.00 Ry     beta= 0.70
     Davidson diagonalization with overlap
     ethr =  7.56E-09,  avg # of iterations =  2.0

     negative rho (up, down):  4.832E-04 0.000E+00

     total cpu time spent up to now is     4233.3 secs

     total energy              =    -176.32084364 Ry
     estimated scf accuracy    <       0.00000032 Ry

     iteration #  3     ecut=    60.00 Ry     beta= 0.70
     Davidson diagonalization with overlap
     ethr =  9.98E-10,  avg # of iterations =  2.0

     negative rho (up, down):  4.832E-04 0.000E+00

     total cpu time spent up to now is     4239.0 secs

     total energy              =    -176.32084371 Ry
     estimated scf accuracy    <       0.00000007 Ry

     iteration #  4     ecut=    60.00 Ry     beta= 0.70
     Davidson diagonalization with overlap
     ethr =  2.28E-10,  avg # of iterations =  2.0

     negative rho (up, down):  4.832E-04 0.000E+00

     total cpu time spent up to now is     4244.0 secs

     total energy              =    -176.32084372 Ry
     estimated scf accuracy    <          2.2E-09 Ry

     iteration #  5     ecut=    60.00 Ry     beta= 0.70
     Davidson diagonalization with overlap
     ethr =  6.78E-12,  avg # of iterations =  4.1

     negative rho (up, down):  4.832E-04 0.000E+00

     total cpu time spent up to now is     4250.9 secs

     total energy              =    -176.32084372 Ry
     estimated scf accuracy    <          2.7E-09 Ry

     iteration #  6     ecut=    60.00 Ry     beta= 0.70
     Davidson diagonalization with overlap
     ethr =  6.78E-12,  avg # of iterations =  2.0

     negative rho (up, down):  4.832E-04 0.000E+00

     total cpu time spent up to now is     4256.2 secs

     total energy              =    -176.32084372 Ry
     estimated scf accuracy    <          2.6E-10 Ry

     iteration #  7     ecut=    60.00 Ry     beta= 0.70
     Davidson diagonalization with overlap
     ethr =  8.18E-13,  avg # of iterations =  3.6

     negative rho (up, down):  4.832E-04 0.000E+00

     total cpu time spent up to now is     4263.0 secs

     total energy              =    -176.32084372 Ry
     estimated scf accuracy    <          1.7E-10 Ry

     iteration #  8     ecut=    60.00 Ry     beta= 0.70
     Davidson diagonalization with overlap
     ethr =  5.41E-13,  avg # of iterations =  2.0

     negative rho (up, down):  4.832E-04 0.000E+00

     total cpu time spent up to now is     4268.1 secs

     total energy              =    -176.32084372 Ry
     estimated scf accuracy    <          1.7E-11 Ry

     iteration #  9     ecut=    60.00 Ry     beta= 0.70
     Davidson diagonalization with overlap
     ethr =  1.00E-13,  avg # of iterations =  2.2

     negative rho (up, down):  4.832E-04 0.000E+00

     total cpu time spent up to now is     4273.3 secs

     End of self-consistent calculation

          k = 0.0000 0.0000 0.0000 ( 18047 PWs)   bands (ev):

   -24.6512 -24.2360 -23.4507 -23.0900 -12.0289 -11.8937 -11.8815 -11.8143
   -10.1112  -9.0558  -7.5361  -7.0236  -6.4344  -6.4111  -6.3302  -6.1823

          k =-0.0153 0.2863 0.0000 ( 18132 PWs)   bands (ev):

   -24.5149 -24.1042 -23.6214 -23.2543 -12.1516 -12.1032 -11.6557 -11.5874
    -9.8778  -8.9705  -7.7364  -7.3526  -6.5454  -6.4493  -6.2164  -6.1001

          k = 0.0307-0.5725 0.0000 ( 18166 PWs)   bands (ev):

   -24.2871 -23.9073 -23.8561 -23.5101 -12.2176 -12.1986 -11.5236 -11.4413
    -9.5661  -8.8388  -7.9979  -7.7543  -6.5980  -6.4495  -6.1249  -6.0272

          k = 0.2575-0.1328 0.0000 ( 18109 PWs)   bands (ev):

   -24.5140 -24.1033 -23.6214 -23.2546 -12.1694 -12.1267 -11.6373 -11.5877
    -9.8751  -8.9707  -7.7284  -7.3430  -6.5456  -6.4445  -6.2102  -6.1033

          k = 0.2421 0.1535 0.0000 ( 18132 PWs)   bands (ev):

   -24.5145 -24.1096 -23.6211 -23.2484 -12.0711 -11.9289 -11.9004 -11.6873
    -9.7762  -8.8695  -7.8974  -7.4062  -6.4079  -6.3218  -6.2500  -6.2244

          k = 0.2882-0.7053 0.0000 ( 18147 PWs)   bands (ev):

   -24.2860 -23.9266 -23.8487 -23.4981 -12.1888 -12.1473 -11.6444 -11.4952
    -9.4041  -8.6223  -8.2687  -7.8639  -6.5104  -6.4001  -6.1238  -6.0592

          k = 0.2728-0.4190 0.0000 ( 18128 PWs)   bands (ev):

   -24.2858 -23.9073 -23.8551 -23.5108 -12.2403 -12.2298 -11.5006 -11.4381
    -9.5425  -8.8048  -8.0127  -7.7984  -6.5807  -6.4534  -6.0910  -6.0356

          k =-0.5150 0.2656 0.0000 ( 18184 PWs)   bands (ev):

   -24.2838 -23.9075 -23.8541 -23.5122 -12.2501 -12.2260 -11.5128 -11.4389
    -9.5696  -8.8440  -7.9764  -7.7223  -6.5951  -6.4455  -6.1146  -6.0292

          k =-0.5303 0.5518 0.0000 ( 18128 PWs)   bands (ev):

   -24.2843 -23.9266 -23.8479 -23.4991 -12.2048 -12.1656 -11.6354 -11.4916
    -9.4073  -8.6303  -8.2562  -7.8480  -6.5114  -6.3945  -6.1153  -6.0626

          k =-0.4843-0.3070 0.0000 ( 18166 PWs)   bands (ev):

   -24.2836 -23.9460 -23.8410 -23.4878 -12.1135 -11.9516 -11.9060 -11.5895
    -9.2239  -8.6836  -8.1754  -8.0438  -6.3654  -6.2997  -6.1988  -6.1802

     highest occupied level (ev):    -6.0272

!    total energy              =    -176.32084372 Ry

     total all-electron energy =      -611.708389 Ry
     estimated scf accuracy    <          1.6E-13 Ry

     The total energy is the sum of the following terms:
     one-electron contribution =    -667.38009676 Ry
     hartree contribution      =     341.72073355 Ry
     xc contribution           =     -35.62774613 Ry
     ewald contribution        =     223.31716086 Ry
     one-center paw contrib.   =     -38.35089524 Ry

     convergence has been achieved in   9 iterations

     negative rho (up, down):  4.832E-04 0.000E+00

     Forces acting on atoms (cartesian axes, Ry/au):

     atom    1 type  1   force =    -0.00022240    0.00038740    0.00047892
     atom    2 type  1   force =     0.00021116   -0.00014211    0.00000622
     atom    3 type  1   force =     0.00015906   -0.00025151    0.00012326
     atom    4 type  1   force =    -0.00032674    0.00020797   -0.00019090
     atom    5 type  1   force =     0.00010195    0.00011521    0.00017609
     atom    6 type  1   force =    -0.00006138   -0.00009372    0.00006692
     atom    7 type  1   force =     0.00008033    0.00006213    0.00011874
     atom    8 type  1   force =     0.00013099    0.00017389   -0.00026373
     atom    9 type  2   force =     0.00009587   -0.00032012   -0.00006883
     atom   10 type  2   force =     0.00003515    0.00012395    0.00002082
     atom   11 type  2   force =    -0.00006326   -0.00014270    0.00006455
     atom   12 type  2   force =    -0.00014072   -0.00012039   -0.00053206

     Total force =     0.001215     Total SCF correction =     0.000001
     Energy error            =      3.0E-06 Ry
     Gradient error          =      5.3E-04 Ry/Bohr

     number of scf cycles    =  55
     number of bfgs steps    =  53

     energy             old  =    -176.3208406946 Ry
     energy             new  =    -176.3208437198 Ry

     CASE: energy            _new < energy            _old

     new trust radius        =       0.0030302743 bohr
     new conv_thr            =            1.0E-12 Ry


ATOMIC_POSITIONS (angstrom)
H             4.4752358531        3.7381762762       11.2165400936
H             5.3197607585        4.3042951677       10.0131507674
H             3.2949395426        1.1626887963        8.0855139310
H             3.1492416847        2.8650775422        9.3265337082
H             3.9922302988        3.4261101648        8.1182614595
H             6.3311966078        3.9879501878        8.0917746026
H             3.0054098771        1.8122993840       11.2547021657
H             2.1356168092        3.1830390562       11.2510275904
O             5.2901902972        4.2786347209       11.0136407169
O             3.1755863294        2.8903157454        8.3259228708
O             5.4260108303        4.3745769480        8.2577719285
O             3.0399675619        2.7949427686       11.0848462433



     Writing config-only to output data dir ./output/f-BH.save/
     NEW-OLD atomic charge density approx. for the potential

     negative rho (up, down):  4.832E-04 0.000E+00

     total cpu time spent up to now is     4286.0 secs

     per-process dynamical memory:   210.2 Mb

     Self-consistent Calculation

     iteration #  1     ecut=    60.00 Ry     beta= 0.70
     Davidson diagonalization with overlap
     ethr =  1.00E-06,  avg # of iterations =  2.0

     Threshold (ethr) on eigenvalues was too large:
     Diagonalizing with lowered threshold

     Davidson diagonalization with overlap
     ethr =  3.48E-09,  avg # of iterations =  3.1

     negative rho (up, down):  4.832E-04 0.000E+00

     total cpu time spent up to now is     4297.8 secs

     total energy              =    -176.32084610 Ry
     estimated scf accuracy    <       0.00000165 Ry

     iteration #  2     ecut=    60.00 Ry     beta= 0.70
     Davidson diagonalization with overlap
     ethr =  5.14E-09,  avg # of iterations =  2.0

     negative rho (up, down):  4.832E-04 0.000E+00

     total cpu time spent up to now is     4303.2 secs

     total energy              =    -176.32084631 Ry
     estimated scf accuracy    <       0.00000021 Ry

     iteration #  3     ecut=    60.00 Ry     beta= 0.70
     Davidson diagonalization with overlap
     ethr =  6.62E-10,  avg # of iterations =  2.0

     negative rho (up, down):  4.832E-04 0.000E+00

     total cpu time spent up to now is     4308.9 secs

     total energy              =    -176.32084636 Ry
     estimated scf accuracy    <       0.00000004 Ry

     iteration #  4     ecut=    60.00 Ry     beta= 0.70
     Davidson diagonalization with overlap
     ethr =  1.33E-10,  avg # of iterations =  2.0

     negative rho (up, down):  4.832E-04 0.000E+00

     total cpu time spent up to now is     4314.0 secs

     total energy              =    -176.32084636 Ry
     estimated scf accuracy    <          1.5E-09 Ry

     iteration #  5     ecut=    60.00 Ry     beta= 0.70
     Davidson diagonalization with overlap
     ethr =  4.73E-12,  avg # of iterations =  3.0

     negative rho (up, down):  4.832E-04 0.000E+00

     total cpu time spent up to now is     4320.5 secs

     total energy              =    -176.32084636 Ry
     estimated scf accuracy    <          9.9E-10 Ry

     iteration #  6     ecut=    60.00 Ry     beta= 0.70
     Davidson diagonalization with overlap
     ethr =  3.09E-12,  avg # of iterations =  2.0

     negative rho (up, down):  4.832E-04 0.000E+00

     total cpu time spent up to now is     4325.8 secs

     total energy              =    -176.32084636 Ry
     estimated scf accuracy    <          7.4E-11 Ry

     iteration #  7     ecut=    60.00 Ry     beta= 0.70
     Davidson diagonalization with overlap
     ethr =  2.30E-13,  avg # of iterations =  4.0

     negative rho (up, down):  4.832E-04 0.000E+00

     total cpu time spent up to now is     4332.8 secs

     total energy              =    -176.32084636 Ry
     estimated scf accuracy    <          7.0E-11 Ry

     iteration #  8     ecut=    60.00 Ry     beta= 0.70
     Davidson diagonalization with overlap
     ethr =  2.18E-13,  avg # of iterations =  2.0

     negative rho (up, down):  4.832E-04 0.000E+00

     total cpu time spent up to now is     4338.2 secs

     End of self-consistent calculation

          k = 0.0000 0.0000 0.0000 ( 18047 PWs)   bands (ev):

   -24.6512 -24.2361 -23.4508 -23.0900 -12.0293 -11.8932 -11.8807 -11.8135
   -10.1103  -9.0556  -7.5362  -7.0230  -6.4335  -6.4100  -6.3298  -6.1815

          k =-0.0153 0.2863 0.0000 ( 18132 PWs)   bands (ev):

   -24.5150 -24.1043 -23.6213 -23.2543 -12.1513 -12.1032 -11.6548 -11.5874
    -9.8767  -8.9698  -7.7367  -7.3520  -6.5449  -6.4484  -6.2152  -6.0992

          k = 0.0307-0.5725 0.0000 ( 18166 PWs)   bands (ev):

   -24.2875 -23.9082 -23.8552 -23.5097 -12.2171 -12.1988 -11.5229 -11.4416
    -9.5648  -8.8371  -7.9986  -7.7539  -6.5976  -6.4488  -6.1235  -6.0263

          k = 0.2575-0.1328 0.0000 ( 18109 PWs)   bands (ev):

   -24.5138 -24.1032 -23.6216 -23.2547 -12.1689 -12.1264 -11.6368 -11.5870
    -9.8740  -8.9702  -7.7288  -7.3426  -6.5445  -6.4445  -6.2093  -6.1021

          k = 0.2421 0.1535 0.0000 ( 18132 PWs)   bands (ev):

   -24.5146 -24.1098 -23.6211 -23.2483 -12.0716 -11.9284 -11.9002 -11.6861
    -9.7754  -8.8694  -7.8971  -7.4054  -6.4068  -6.3212  -6.2496  -6.2236

          k = 0.2882-0.7053 0.0000 ( 18147 PWs)   bands (ev):

   -24.2864 -23.9275 -23.8478 -23.4977 -12.1888 -12.1472 -11.6439 -11.4948
    -9.4030  -8.6215  -8.2686  -7.8634  -6.5099  -6.3993  -6.1227  -6.0585

          k = 0.2728-0.4190 0.0000 ( 18128 PWs)   bands (ev):

   -24.2857 -23.9083 -23.8542 -23.5109 -12.2394 -12.2299 -11.5000 -11.4380
    -9.5410  -8.8034  -8.0136  -7.7983  -6.5801  -6.4531  -6.0899  -6.0345

          k =-0.5150 0.2656 0.0000 ( 18184 PWs)   bands (ev):

   -24.2832 -23.9087 -23.8531 -23.5128 -12.2492 -12.2259 -11.5122 -11.4383
    -9.5679  -8.8429  -7.9776  -7.7225  -6.5942  -6.4457  -6.1135  -6.0279

          k =-0.5303 0.5518 0.0000 ( 18128 PWs)   bands (ev):

   -24.2842 -23.9275 -23.8471 -23.4991 -12.2047 -12.1652 -11.6350 -11.4908
    -9.4060  -8.6298  -8.2565  -7.8476  -6.5105  -6.3944  -6.1145  -6.0615

          k =-0.4843-0.3070 0.0000 ( 18166 PWs)   bands (ev):

   -24.2840 -23.9469 -23.8401 -23.4874 -12.1141 -11.9523 -11.9045 -11.5885
    -9.2230  -8.6852  -8.1729  -8.0431  -6.3643  -6.2986  -6.1979  -6.1804

     highest occupied level (ev):    -6.0263

!    total energy              =    -176.32084636 Ry

     total all-electron energy =      -611.708391 Ry
     estimated scf accuracy    <          5.8E-13 Ry

     The total energy is the sum of the following terms:
     one-electron contribution =    -667.39089501 Ry
     hartree contribution      =     341.72696377 Ry
     xc contribution           =     -35.62829972 Ry
     ewald contribution        =     223.32228035 Ry
     one-center paw contrib.   =     -38.35089576 Ry

     convergence has been achieved in   8 iterations

     negative rho (up, down):  4.832E-04 0.000E+00

     Forces acting on atoms (cartesian axes, Ry/au):

     atom    1 type  1   force =    -0.00029791    0.00029372    0.00057075
     atom    2 type  1   force =     0.00031642    0.00003612   -0.00015338
     atom    3 type  1   force =     0.00013660   -0.00030730    0.00011763
     atom    4 type  1   force =    -0.00032103    0.00017856    0.00003012
     atom    5 type  1   force =     0.00015737    0.00016037    0.00013820
     atom    6 type  1   force =     0.00001137   -0.00005490    0.00007185
     atom    7 type  1   force =    -0.00000485    0.00004433    0.00006519
     atom    8 type  1   force =    -0.00025293    0.00021403   -0.00019035
     atom    9 type  2   force =    -0.00006074   -0.00041591    0.00000863
     atom   10 type  2   force =     0.00000735    0.00001572   -0.00017372
     atom   11 type  2   force =    -0.00014276   -0.00006234    0.00006653
     atom   12 type  2   force =     0.00045112   -0.00010240   -0.00055145

     Total force =     0.001368     Total SCF correction =     0.000001
     Energy error            =      2.6E-06 Ry
     Gradient error          =      5.7E-04 Ry/Bohr

     number of scf cycles    =  56
     number of bfgs steps    =  54

     energy             old  =    -176.3208437198 Ry
     energy             new  =    -176.3208463626 Ry

     CASE: energy            _new < energy            _old

     new trust radius        =       0.0033333018 bohr
     new conv_thr            =            1.0E-12 Ry


ATOMIC_POSITIONS (angstrom)
H             4.4756285809        3.7395588796       11.2175626110
H             5.3200416541        4.3035700939       10.0134436879
H             3.2951056101        1.1617430785        8.0857923933
H             3.1484658096        2.8651795299        9.3260206333
H             3.9919253881        3.4260225251        8.1181901917
H             6.3307889494        3.9867313149        8.0914891991
H             3.0057012442        1.8129677880       11.2548415974
H             2.1359537738        3.1838839604       11.2509442979
O             5.2908497859        4.2792054297       11.0139339053
O             3.1752590156        2.8901461548        8.3254846259
O             5.4258263332        4.3736455760        8.2579616467
O             3.0398403059        2.7954524274       11.0840212885



     Writing config-only to output data dir ./output/f-BH.save/
     NEW-OLD atomic charge density approx. for the potential

     negative rho (up, down):  4.832E-04 0.000E+00

     total cpu time spent up to now is     4350.8 secs

     per-process dynamical memory:   210.7 Mb

     Self-consistent Calculation

     iteration #  1     ecut=    60.00 Ry     beta= 0.70
     Davidson diagonalization with overlap
     ethr =  1.00E-06,  avg # of iterations =  2.0

     Threshold (ethr) on eigenvalues was too large:
     Diagonalizing with lowered threshold

     Davidson diagonalization with overlap
     ethr =  3.57E-09,  avg # of iterations =  3.0

     negative rho (up, down):  4.833E-04 0.000E+00

     total cpu time spent up to now is     4362.5 secs

     total energy              =    -176.32084900 Ry
     estimated scf accuracy    <       0.00000168 Ry

     iteration #  2     ecut=    60.00 Ry     beta= 0.70
     Davidson diagonalization with overlap
     ethr =  5.27E-09,  avg # of iterations =  2.0

     negative rho (up, down):  4.832E-04 0.000E+00

     total cpu time spent up to now is     4367.8 secs

     total energy              =    -176.32084921 Ry
     estimated scf accuracy    <       0.00000014 Ry

     iteration #  3     ecut=    60.00 Ry     beta= 0.70
     Davidson diagonalization with overlap
     ethr =  4.45E-10,  avg # of iterations =  2.0

     negative rho (up, down):  4.832E-04 0.000E+00

     total cpu time spent up to now is     4373.3 secs

     total energy              =    -176.32084923 Ry
     estimated scf accuracy    <       0.00000003 Ry

     iteration #  4     ecut=    60.00 Ry     beta= 0.70
     Davidson diagonalization with overlap
     ethr =  1.08E-10,  avg # of iterations =  2.0

     negative rho (up, down):  4.832E-04 0.000E+00

     total cpu time spent up to now is     4378.6 secs

     total energy              =    -176.32084924 Ry
     estimated scf accuracy    <          1.2E-09 Ry

     iteration #  5     ecut=    60.00 Ry     beta= 0.70
     Davidson diagonalization with overlap
     ethr =  3.86E-12,  avg # of iterations =  2.8

     negative rho (up, down):  4.832E-04 0.000E+00

     total cpu time spent up to now is     4384.4 secs

     total energy              =    -176.32084924 Ry
     estimated scf accuracy    <          4.0E-10 Ry

     iteration #  6     ecut=    60.00 Ry     beta= 0.70
     Davidson diagonalization with overlap
     ethr =  1.26E-12,  avg # of iterations =  2.0

     negative rho (up, down):  4.832E-04 0.000E+00

     total cpu time spent up to now is     4389.8 secs

     total energy              =    -176.32084924 Ry
     estimated scf accuracy    <          2.7E-11 Ry

     iteration #  7     ecut=    60.00 Ry     beta= 0.70
     Davidson diagonalization with overlap
     ethr =  1.00E-13,  avg # of iterations =  3.2

     negative rho (up, down):  4.832E-04 0.000E+00

     total cpu time spent up to now is     4396.2 secs

     total energy              =    -176.32084924 Ry
     estimated scf accuracy    <          1.2E-11 Ry

     iteration #  8     ecut=    60.00 Ry     beta= 0.70
     Davidson diagonalization with overlap
     ethr =  1.00E-13,  avg # of iterations =  2.0

     negative rho (up, down):  4.832E-04 0.000E+00

     total cpu time spent up to now is     4400.8 secs

     End of self-consistent calculation

          k = 0.0000 0.0000 0.0000 ( 18047 PWs)   bands (ev):

   -24.6506 -24.2356 -23.4504 -23.0895 -12.0290 -11.8921 -11.8798 -11.8130
   -10.1092  -9.0549  -7.5360  -7.0217  -6.4323  -6.4091  -6.3289  -6.1808

          k =-0.0153 0.2863 0.0000 ( 18132 PWs)   bands (ev):

   -24.5146 -24.1039 -23.6208 -23.2536 -12.1507 -12.1030 -11.6535 -11.5871
    -9.8757  -8.9689  -7.7364  -7.3507  -6.5444  -6.4472  -6.2139  -6.0986

          k = 0.0307-0.5725 0.0000 ( 18166 PWs)   bands (ev):

   -24.2874 -23.9079 -23.8546 -23.5087 -12.2163 -12.1988 -11.5218 -11.4415
    -9.5641  -8.8357  -7.9984  -7.7523  -6.5971  -6.4478  -6.1221  -6.0255

          k = 0.2575-0.1328 0.0000 ( 18109 PWs)   bands (ev):

   -24.5132 -24.1026 -23.6214 -23.2543 -12.1682 -12.1258 -11.6358 -11.5861
    -9.8728  -8.9694  -7.7289  -7.3417  -6.5433  -6.4442  -6.2083  -6.1011

          k = 0.2421 0.1535 0.0000 ( 18132 PWs)   bands (ev):

   -24.5141 -24.1093 -23.6206 -23.2477 -12.0714 -11.9274 -11.8996 -11.6851
    -9.7744  -8.8687  -7.8967  -7.4041  -6.4058  -6.3201  -6.2486  -6.2231

          k = 0.2882-0.7053 0.0000 ( 18147 PWs)   bands (ev):

   -24.2862 -23.9271 -23.8472 -23.4968 -12.1884 -12.1469 -11.6428 -11.4943
    -9.4022  -8.6206  -8.2680  -7.8620  -6.5094  -6.3984  -6.1213  -6.0577

          k = 0.2728-0.4190 0.0000 ( 18128 PWs)   bands (ev):

   -24.2851 -23.9080 -23.8535 -23.5105 -12.2382 -12.2300 -11.4987 -11.4375
    -9.5398  -8.8022  -8.0139  -7.7972  -6.5794  -6.4526  -6.0887  -6.0334

          k =-0.5150 0.2656 0.0000 ( 18184 PWs)   bands (ev):

   -24.2821 -23.9086 -23.8524 -23.5129 -12.2482 -12.2257 -11.5109 -11.4373
    -9.5663  -8.8418  -7.9784  -7.7222  -6.5931  -6.4456  -6.1124  -6.0266

          k =-0.5303 0.5518 0.0000 ( 18128 PWs)   bands (ev):

   -24.2835 -23.9272 -23.8465 -23.4988 -12.2043 -12.1645 -11.6340 -11.4899
    -9.4047  -8.6288  -8.2566  -7.8467  -6.5095  -6.3943  -6.1134  -6.0603

          k =-0.4843-0.3070 0.0000 ( 18166 PWs)   bands (ev):

   -24.2838 -23.9464 -23.8395 -23.4867 -12.1141 -11.9523 -11.9028 -11.5876
    -9.2219  -8.6858  -8.1712  -8.0419  -6.3636  -6.2979  -6.1964  -6.1800

     highest occupied level (ev):    -6.0255

!    total energy              =    -176.32084924 Ry

     total all-electron energy =      -611.708394 Ry
     estimated scf accuracy    <          4.3E-13 Ry

     The total energy is the sum of the following terms:
     one-electron contribution =    -667.40119517 Ry
     hartree contribution      =     341.73317619 Ry
     xc contribution           =     -35.62862881 Ry
     ewald contribution        =     223.32669465 Ry
     one-center paw contrib.   =     -38.35089611 Ry

     convergence has been achieved in   8 iterations

     negative rho (up, down):  4.832E-04 0.000E+00

     Forces acting on atoms (cartesian axes, Ry/au):

     atom    1 type  1   force =    -0.00030986    0.00018848    0.00052936
     atom    2 type  1   force =     0.00032781    0.00013727   -0.00023523
     atom    3 type  1   force =     0.00010491   -0.00030993    0.00009727
     atom    4 type  1   force =    -0.00028659    0.00014660    0.00015167
     atom    5 type  1   force =     0.00018500    0.00016435    0.00009990
     atom    6 type  1   force =     0.00009352   -0.00005301    0.00007031
     atom    7 type  1   force =    -0.00004582    0.00007526   -0.00001129
     atom    8 type  1   force =    -0.00049399    0.00021057   -0.00014648
     atom    9 type  2   force =    -0.00014988   -0.00040850    0.00012010
     atom   10 type  2   force =    -0.00003099   -0.00006933   -0.00026398
     atom   11 type  2   force =    -0.00019525    0.00003020    0.00008499
     atom   12 type  2   force =     0.00080115   -0.00011196   -0.00049663

     Total force =     0.001571     Total SCF correction =     0.000001
     Energy error            =      2.9E-06 Ry
     Gradient error          =      8.0E-04 Ry/Bohr

     number of scf cycles    =  57
     number of bfgs steps    =  55

     energy             old  =    -176.3208463626 Ry
     energy             new  =    -176.3208492401 Ry

     CASE: energy            _new < energy            _old

     new trust radius        =       0.0049999527 bohr
     new conv_thr            =            1.0E-12 Ry


ATOMIC_POSITIONS (angstrom)
H             4.4757315625        3.7414582215       11.2194017618
H             5.3204531446        4.3025642525       10.0141053223
H             3.2952030303        1.1604029625        8.0860958036
H             3.1473467011        2.8651596331        9.3250074482
H             3.9917489149        3.4261254331        8.1181379538
H             6.3303110987        3.9852775234        8.0911587163
H             3.0062732579        1.8140582763       11.2549498862
H             2.1363136757        3.1848911944       11.2506662229
O             5.2915936286        4.2795945062       11.0146371116
O             3.1750205288        2.8899330492        8.3245637640
O             5.4255460691        4.3724137874        8.2583977431
O             3.0398448387        2.7962279185       11.0825643441



     Writing config-only to output data dir ./output/f-BH.save/
     NEW-OLD atomic charge density approx. for the potential

     negative rho (up, down):  4.832E-04 0.000E+00

     total cpu time spent up to now is     4413.4 secs

     per-process dynamical memory:   210.2 Mb

     Self-consistent Calculation

     iteration #  1     ecut=    60.00 Ry     beta= 0.70
     Davidson diagonalization with overlap
     ethr =  1.00E-06,  avg # of iterations =  2.0

     Threshold (ethr) on eigenvalues was too large:
     Diagonalizing with lowered threshold

     Davidson diagonalization with overlap
     ethr =  7.58E-09,  avg # of iterations =  3.0

     negative rho (up, down):  4.833E-04 0.000E+00

     total cpu time spent up to now is     4425.0 secs

     total energy              =    -176.32085266 Ry
     estimated scf accuracy    <       0.00000354 Ry

     iteration #  2     ecut=    60.00 Ry     beta= 0.70
     Davidson diagonalization with overlap
     ethr =  1.11E-08,  avg # of iterations =  2.0

     negative rho (up, down):  4.833E-04 0.000E+00

     total cpu time spent up to now is     4430.1 secs

     total energy              =    -176.32085307 Ry
     estimated scf accuracy    <       0.00000023 Ry

     iteration #  3     ecut=    60.00 Ry     beta= 0.70
     Davidson diagonalization with overlap
     ethr =  7.27E-10,  avg # of iterations =  2.0

     negative rho (up, down):  4.833E-04 0.000E+00

     total cpu time spent up to now is     4435.6 secs

     total energy              =    -176.32085310 Ry
     estimated scf accuracy    <       0.00000005 Ry

     iteration #  4     ecut=    60.00 Ry     beta= 0.70
     Davidson diagonalization with overlap
     ethr =  1.59E-10,  avg # of iterations =  2.0

     negative rho (up, down):  4.833E-04 0.000E+00

     total cpu time spent up to now is     4440.9 secs

     total energy              =    -176.32085311 Ry
     estimated scf accuracy    <          3.0E-09 Ry

     iteration #  5     ecut=    60.00 Ry     beta= 0.70
     Davidson diagonalization with overlap
     ethr =  9.32E-12,  avg # of iterations =  2.0

     negative rho (up, down):  4.833E-04 0.000E+00

     total cpu time spent up to now is     4446.2 secs

     total energy              =    -176.32085311 Ry
     estimated scf accuracy    <          3.3E-10 Ry

     iteration #  6     ecut=    60.00 Ry     beta= 0.70
     Davidson diagonalization with overlap
     ethr =  1.03E-12,  avg # of iterations =  2.0

     negative rho (up, down):  4.833E-04 0.000E+00

     total cpu time spent up to now is     4451.7 secs

     total energy              =    -176.32085311 Ry
     estimated scf accuracy    <          8.3E-12 Ry

     iteration #  7     ecut=    60.00 Ry     beta= 0.70
     Davidson diagonalization with overlap
     ethr =  1.00E-13,  avg # of iterations =  2.4

     negative rho (up, down):  4.833E-04 0.000E+00

     total cpu time spent up to now is     4457.1 secs

     total energy              =    -176.32085311 Ry
     estimated scf accuracy    <          6.4E-12 Ry

     iteration #  8     ecut=    60.00 Ry     beta= 0.70
     Davidson diagonalization with overlap
     ethr =  1.00E-13,  avg # of iterations =  1.0

     negative rho (up, down):  4.833E-04 0.000E+00

     total cpu time spent up to now is     4461.3 secs

     End of self-consistent calculation

          k = 0.0000 0.0000 0.0000 ( 18047 PWs)   bands (ev):

   -24.6495 -24.2345 -23.4493 -23.0883 -12.0277 -11.8901 -11.8786 -11.8126
   -10.1078  -9.0533  -7.5356  -7.0195  -6.4302  -6.4082  -6.3271  -6.1804

          k =-0.0153 0.2863 0.0000 ( 18132 PWs)   bands (ev):

   -24.5135 -24.1030 -23.6196 -23.2523 -12.1495 -12.1026 -11.6513 -11.5861
    -9.8747  -8.9674  -7.7355  -7.3480  -6.5436  -6.4453  -6.2123  -6.0981

          k = 0.0307-0.5725 0.0000 ( 18166 PWs)   bands (ev):

   -24.2869 -23.9061 -23.8542 -23.5068 -12.2151 -12.1987 -11.5196 -11.4402
    -9.5639  -8.8344  -7.9971  -7.7487  -6.5966  -6.4464  -6.1204  -6.0248

          k = 0.2575-0.1328 0.0000 ( 18109 PWs)   bands (ev):

   -24.5119 -24.1014 -23.6206 -23.2533 -12.1671 -12.1248 -11.6338 -11.5844
    -9.8714  -8.9679  -7.7289  -7.3399  -6.5415  -6.4434  -6.2068  -6.1000

          k = 0.2421 0.1535 0.0000 ( 18132 PWs)   bands (ev):

   -24.5130 -24.1082 -23.6195 -23.2466 -12.0705 -11.9255 -11.8983 -11.6839
    -9.7732  -8.8672  -7.8961  -7.4021  -6.4049  -6.3180  -6.2468  -6.2227

          k = 0.2882-0.7053 0.0000 ( 18147 PWs)   bands (ev):

   -24.2854 -23.9253 -23.8467 -23.4954 -12.1875 -12.1461 -11.6405 -11.4930
    -9.4016  -8.6196  -8.2666  -7.8594  -6.5090  -6.3971  -6.1193  -6.0567

          k = 0.2728-0.4190 0.0000 ( 18128 PWs)   bands (ev):

   -24.2839 -23.9064 -23.8531 -23.5094 -12.2366 -12.2300 -11.4962 -11.4358
    -9.5389  -8.8009  -8.0136  -7.7947  -6.5785  -6.4516  -6.0870  -6.0322

          k =-0.5150 0.2656 0.0000 ( 18184 PWs)   bands (ev):

   -24.2801 -23.9072 -23.8518 -23.5126 -12.2468 -12.2251 -11.5082 -11.4352
    -9.5646  -8.8403  -7.9792  -7.7209  -6.5916  -6.4452  -6.1107  -6.0250

          k =-0.5303 0.5518 0.0000 ( 18128 PWs)   bands (ev):

   -24.2819 -23.9255 -23.8461 -23.4982 -12.2034 -12.1632 -11.6317 -11.4882
    -9.4032  -8.6274  -8.2565  -7.8451  -6.5083  -6.3940  -6.1118  -6.0585

          k =-0.4843-0.3070 0.0000 ( 18166 PWs)   bands (ev):

   -24.2826 -23.9445 -23.8391 -23.4858 -12.1133 -11.9514 -11.9002 -11.5863
    -9.2204  -8.6856  -8.1699  -8.0398  -6.3629  -6.2973  -6.1939  -6.1785

     highest occupied level (ev):    -6.0248

!    total energy              =    -176.32085311 Ry

     total all-electron energy =      -611.708398 Ry
     estimated scf accuracy    <          4.5E-13 Ry

     The total energy is the sum of the following terms:
     one-electron contribution =    -667.40580580 Ry
     hartree contribution      =     341.73709456 Ry
     xc contribution           =     -35.62883531 Ry
     ewald contribution        =     223.32759105 Ry
     one-center paw contrib.   =     -38.35089762 Ry

     convergence has been achieved in   8 iterations

     negative rho (up, down):  4.833E-04 0.000E+00

     Forces acting on atoms (cartesian axes, Ry/au):

     atom    1 type  1   force =    -0.00026294    0.00003517    0.00035780
     atom    2 type  1   force =     0.00026112    0.00021003   -0.00023208
     atom    3 type  1   force =     0.00006331   -0.00023170    0.00006166
     atom    4 type  1   force =    -0.00021498    0.00011748    0.00027555
     atom    5 type  1   force =     0.00017442    0.00011542    0.00004746
     atom    6 type  1   force =     0.00013469   -0.00005899    0.00007420
     atom    7 type  1   force =    -0.00006346    0.00004347   -0.00010245
     atom    8 type  1   force =    -0.00060301    0.00015368   -0.00013303
     atom    9 type  2   force =    -0.00018741   -0.00030036    0.00023477
     atom   10 type  2   force =    -0.00008573   -0.00013624   -0.00034289
     atom   11 type  2   force =    -0.00015845    0.00008403    0.00011382
     atom   12 type  2   force =     0.00094244   -0.00003200   -0.00035480

     Total force =     0.001562     Total SCF correction =     0.000001
     Energy error            =      3.9E-06 Ry
     Gradient error          =      9.4E-04 Ry/Bohr

     number of scf cycles    =  58
     number of bfgs steps    =  56

     energy             old  =    -176.3208492401 Ry
     energy             new  =    -176.3208531116 Ry

     CASE: energy            _new < energy            _old

     new trust radius        =       0.0063927420 bohr
     new conv_thr            =            1.0E-12 Ry


ATOMIC_POSITIONS (angstrom)
H             4.4753400703        3.7435705745       11.2220149334
H             5.3209404473        4.3014713287       10.0152382520
H             3.2951202941        1.1588202749        8.0863737581
H             3.1460061700        2.8649832520        9.3234885791
H             3.9918396705        3.4264904664        8.1180704354
H             6.3298760768        3.9838465986        8.0908565804
H             3.0070853980        1.8154880743       11.2549542999
H             2.1365910981        3.1858201286       11.2500876737
O             5.2922318719        4.2796146263       11.0158711390
O             3.1749719532        2.8896866716        8.3230327471
O             5.4252393910        4.3710268788        8.2591267058
O             3.0401440096        2.7972878834       11.0805709739



     Writing config-only to output data dir ./output/f-BH.save/
     NEW-OLD atomic charge density approx. for the potential

     negative rho (up, down):  4.833E-04 0.000E+00

     total cpu time spent up to now is     4474.0 secs

     per-process dynamical memory:   210.7 Mb

     Self-consistent Calculation

     iteration #  1     ecut=    60.00 Ry     beta= 0.70
     Davidson diagonalization with overlap
     ethr =  1.00E-06,  avg # of iterations =  2.4

     Threshold (ethr) on eigenvalues was too large:
     Diagonalizing with lowered threshold

     Davidson diagonalization with overlap
     ethr =  1.37E-08,  avg # of iterations =  3.0

     negative rho (up, down):  4.834E-04 0.000E+00

     total cpu time spent up to now is     4485.9 secs

     total energy              =    -176.32085561 Ry
     estimated scf accuracy    <       0.00000627 Ry

     iteration #  2     ecut=    60.00 Ry     beta= 0.70
     Davidson diagonalization with overlap
     ethr =  1.96E-08,  avg # of iterations =  2.0

     negative rho (up, down):  4.835E-04 0.000E+00

     total cpu time spent up to now is     4490.9 secs

     total energy              =    -176.32085630 Ry
     estimated scf accuracy    <       0.00000034 Ry

     iteration #  3     ecut=    60.00 Ry     beta= 0.70
     Davidson diagonalization with overlap
     ethr =  1.05E-09,  avg # of iterations =  2.0

     negative rho (up, down):  4.835E-04 0.000E+00

     total cpu time spent up to now is     4496.5 secs

     total energy              =    -176.32085635 Ry
     estimated scf accuracy    <       0.00000006 Ry

     iteration #  4     ecut=    60.00 Ry     beta= 0.70
     Davidson diagonalization with overlap
     ethr =  2.01E-10,  avg # of iterations =  2.4

     negative rho (up, down):  4.835E-04 0.000E+00

     total cpu time spent up to now is     4502.1 secs

     total energy              =    -176.32085636 Ry
     estimated scf accuracy    <          7.2E-09 Ry

     iteration #  5     ecut=    60.00 Ry     beta= 0.70
     Davidson diagonalization with overlap
     ethr =  2.25E-11,  avg # of iterations =  2.0

     negative rho (up, down):  4.835E-04 0.000E+00

     total cpu time spent up to now is     4507.3 secs

     total energy              =    -176.32085636 Ry
     estimated scf accuracy    <          5.3E-10 Ry

     iteration #  6     ecut=    60.00 Ry     beta= 0.70
     Davidson diagonalization with overlap
     ethr =  1.66E-12,  avg # of iterations =  2.6

     negative rho (up, down):  4.835E-04 0.000E+00

     total cpu time spent up to now is     4513.1 secs

     total energy              =    -176.32085636 Ry
     estimated scf accuracy    <          2.9E-11 Ry

     iteration #  7     ecut=    60.00 Ry     beta= 0.70
     Davidson diagonalization with overlap
     ethr =  1.00E-13,  avg # of iterations =  3.3

     negative rho (up, down):  4.835E-04 0.000E+00

     total cpu time spent up to now is     4518.8 secs

     total energy              =    -176.32085636 Ry
     estimated scf accuracy    <          1.0E-11 Ry

     iteration #  8     ecut=    60.00 Ry     beta= 0.70
     Davidson diagonalization with overlap
     ethr =  1.00E-13,  avg # of iterations =  2.0

     negative rho (up, down):  4.835E-04 0.000E+00

     total cpu time spent up to now is     4523.2 secs

     End of self-consistent calculation

          k = 0.0000 0.0000 0.0000 ( 18047 PWs)   bands (ev):

   -24.6475 -24.2329 -23.4474 -23.0863 -12.0252 -11.8867 -11.8770 -11.8119
   -10.1065  -9.0514  -7.5349  -7.0165  -6.4276  -6.4077  -6.3246  -6.1804

          k =-0.0153 0.2863 0.0000 ( 18132 PWs)   bands (ev):

   -24.5117 -24.1014 -23.6174 -23.2501 -12.1477 -12.1017 -11.6478 -11.5836
    -9.8743  -8.9659  -7.7341  -7.3444  -6.5427  -6.4431  -6.2106  -6.0981

          k = 0.0307-0.5725 0.0000 ( 18166 PWs)   bands (ev):

   -24.2857 -23.9025 -23.8542 -23.5040 -12.2134 -12.1983 -11.5159 -11.4370
    -9.5649  -8.8337  -7.9948  -7.7435  -6.5962  -6.4446  -6.1189  -6.0245

          k = 0.2575-0.1328 0.0000 ( 18109 PWs)   bands (ev):

   -24.5097 -24.0995 -23.6189 -23.2516 -12.1654 -12.1232 -11.6304 -11.5814
    -9.8704  -8.9664  -7.7287  -7.3375  -6.5395  -6.4421  -6.2052  -6.0993

          k = 0.2421 0.1535 0.0000 ( 18132 PWs)   bands (ev):

   -24.5109 -24.1062 -23.6178 -23.2449 -12.0684 -11.9225 -11.8960 -11.6824
    -9.7722  -8.8653  -7.8955  -7.3997  -6.4045  -6.3154  -6.2441  -6.2229

          k = 0.2882-0.7053 0.0000 ( 18147 PWs)   bands (ev):

   -24.2837 -23.9216 -23.8466 -23.4935 -12.1860 -12.1446 -11.6366 -11.4905
    -9.4017  -8.6189  -8.2648  -7.8559  -6.5087  -6.3956  -6.1170  -6.0557

          k = 0.2728-0.4190 0.0000 ( 18128 PWs)   bands (ev):

   -24.2819 -23.9028 -23.8531 -23.5074 -12.2348 -12.2294 -11.4921 -11.4324
    -9.5388  -8.8001  -8.0128  -7.7910  -6.5776  -6.4503  -6.0853  -6.0312

          k =-0.5150 0.2656 0.0000 ( 18184 PWs)   bands (ev):

   -24.2773 -23.9041 -23.8515 -23.5116 -12.2452 -12.2238 -11.5038 -11.4314
    -9.5635  -8.8392  -7.9799  -7.7188  -6.5898  -6.4446  -6.1090  -6.0235

          k =-0.5303 0.5518 0.0000 ( 18128 PWs)   bands (ev):

   -24.2794 -23.9219 -23.8461 -23.4971 -12.2019 -12.1610 -11.6278 -11.4853
    -9.4021  -8.6261  -8.2564  -7.8431  -6.5070  -6.3937  -6.1098  -6.0565

          k =-0.4843-0.3070 0.0000 ( 18166 PWs)   bands (ev):

   -24.2804 -23.9406 -23.8390 -23.4846 -12.1113 -11.9493 -11.8963 -11.5845
    -9.2190  -8.6846  -8.1700  -8.0371  -6.3627  -6.2973  -6.1912  -6.1758

     highest occupied level (ev):    -6.0235

!    total energy              =    -176.32085636 Ry

     total all-electron energy =      -611.708401 Ry
     estimated scf accuracy    <          2.1E-13 Ry

     The total energy is the sum of the following terms:
     one-electron contribution =    -667.38756066 Ry
     hartree contribution      =     341.72984892 Ry
     xc contribution           =     -35.62856906 Ry
     ewald contribution        =     223.31632716 Ry
     one-center paw contrib.   =     -38.35090272 Ry

     convergence has been achieved in   8 iterations

     negative rho (up, down):  4.835E-04 0.000E+00

     Forces acting on atoms (cartesian axes, Ry/au):

     atom    1 type  1   force =    -0.00012423   -0.00013000    0.00003505
     atom    2 type  1   force =     0.00009501    0.00021349   -0.00009077
     atom    3 type  1   force =     0.00003247   -0.00008741    0.00001259
     atom    4 type  1   force =    -0.00010337    0.00009957    0.00022080
     atom    5 type  1   force =     0.00008338   -0.00002294   -0.00001381
     atom    6 type  1   force =     0.00013536   -0.00008047    0.00007479
     atom    7 type  1   force =    -0.00000501    0.00003939   -0.00021152
     atom    8 type  1   force =    -0.00043642    0.00005346   -0.00017015
     atom    9 type  2   force =    -0.00014329   -0.00007359    0.00029976
     atom   10 type  2   force =    -0.00012079   -0.00013873   -0.00021660
     atom   11 type  2   force =    -0.00005097    0.00011267    0.00016223
     atom   12 type  2   force =     0.00063786    0.00001454   -0.00010238

     Total force =     0.001066     Total SCF correction =     0.000001
     Energy error            =      3.3E-06 Ry
     Gradient error          =      6.4E-04 Ry/Bohr

     number of scf cycles    =  59
     number of bfgs steps    =  57

     energy             old  =    -176.3208531116 Ry
     energy             new  =    -176.3208563637 Ry

     CASE: energy            _new < energy            _old

     new trust radius        =       0.0017547966 bohr
     new conv_thr            =            1.0E-12 Ry


ATOMIC_POSITIONS (angstrom)
H             4.4748397911        3.7438060616       11.2227609639
H             5.3209915292        4.3013450994       10.0157709148
H             3.2949603685        1.1585894316        8.0863082377
H             3.1457518902        2.8648130348        9.3229493871
H             3.9921156508        3.4266972254        8.1180909834
H             6.3299299184        3.9838567115        8.0909324365
H             3.0074252901        1.8158750817       11.2547950474
H             2.1364791834        3.1857374734       11.2497174217
O             5.2921388723        4.2792580132       11.0164687561
O             3.1751441925        2.8896566619        8.3224478761
O             5.4252195574        4.3709105894        8.2594785335
O             3.0403902068        2.7975613742       11.0799655197



     Writing config-only to output data dir ./output/f-BH.save/
     NEW-OLD atomic charge density approx. for the potential

     negative rho (up, down):  4.835E-04 0.000E+00

     total cpu time spent up to now is     4535.9 secs

     per-process dynamical memory:   210.2 Mb

     Self-consistent Calculation

     iteration #  1     ecut=    60.00 Ry     beta= 0.70
     Davidson diagonalization with overlap
     ethr =  1.00E-06,  avg # of iterations =  2.0

     Threshold (ethr) on eigenvalues was too large:
     Diagonalizing with lowered threshold

     Davidson diagonalization with overlap
     ethr =  1.58E-09,  avg # of iterations =  3.3

     negative rho (up, down):  4.835E-04 0.000E+00

     total cpu time spent up to now is     4547.5 secs

     total energy              =    -176.32085718 Ry
     estimated scf accuracy    <       0.00000081 Ry

     iteration #  2     ecut=    60.00 Ry     beta= 0.70
     Davidson diagonalization with overlap
     ethr =  2.52E-09,  avg # of iterations =  2.0

     negative rho (up, down):  4.835E-04 0.000E+00

     total cpu time spent up to now is     4552.8 secs

     total energy              =    -176.32085727 Ry
     estimated scf accuracy    <       0.00000006 Ry

     iteration #  3     ecut=    60.00 Ry     beta= 0.70
     Davidson diagonalization with overlap
     ethr =  1.84E-10,  avg # of iterations =  2.2

     negative rho (up, down):  4.835E-04 0.000E+00

     total cpu time spent up to now is     4558.3 secs

     total energy              =    -176.32085728 Ry
     estimated scf accuracy    <       0.00000001 Ry

     iteration #  4     ecut=    60.00 Ry     beta= 0.70
     Davidson diagonalization with overlap
     ethr =  4.63E-11,  avg # of iterations =  2.2

     negative rho (up, down):  4.835E-04 0.000E+00

     total cpu time spent up to now is     4563.7 secs

     total energy              =    -176.32085729 Ry
     estimated scf accuracy    <          7.1E-10 Ry

     iteration #  5     ecut=    60.00 Ry     beta= 0.70
     Davidson diagonalization with overlap
     ethr =  2.23E-12,  avg # of iterations =  2.2

     negative rho (up, down):  4.835E-04 0.000E+00

     total cpu time spent up to now is     4569.4 secs

     total energy              =    -176.32085729 Ry
     estimated scf accuracy    <          2.1E-10 Ry

     iteration #  6     ecut=    60.00 Ry     beta= 0.70
     Davidson diagonalization with overlap
     ethr =  6.47E-13,  avg # of iterations =  2.0

     negative rho (up, down):  4.835E-04 0.000E+00

     total cpu time spent up to now is     4574.5 secs

     total energy              =    -176.32085729 Ry
     estimated scf accuracy    <          1.9E-11 Ry

     iteration #  7     ecut=    60.00 Ry     beta= 0.70
     Davidson diagonalization with overlap
     ethr =  1.00E-13,  avg # of iterations =  2.8

     negative rho (up, down):  4.835E-04 0.000E+00

     total cpu time spent up to now is     4580.3 secs

     total energy              =    -176.32085729 Ry
     estimated scf accuracy    <          5.8E-12 Ry

     iteration #  8     ecut=    60.00 Ry     beta= 0.70
     Davidson diagonalization with overlap
     ethr =  1.00E-13,  avg # of iterations =  1.0

     negative rho (up, down):  4.835E-04 0.000E+00

     total cpu time spent up to now is     4584.4 secs

     End of self-consistent calculation

          k = 0.0000 0.0000 0.0000 ( 18047 PWs)   bands (ev):

   -24.6469 -24.2325 -23.4466 -23.0857 -12.0241 -11.8856 -11.8767 -11.8119
   -10.1068  -9.0509  -7.5348  -7.0158  -6.4271  -6.4081  -6.3240  -6.1809

          k =-0.0153 0.2863 0.0000 ( 18132 PWs)   bands (ev):

   -24.5111 -24.1010 -23.6167 -23.2495 -12.1472 -12.1015 -11.6467 -11.5824
    -9.8749  -8.9659  -7.7337  -7.3435  -6.5426  -6.4427  -6.2107  -6.0986

          k = 0.0307-0.5725 0.0000 ( 18166 PWs)   bands (ev):

   -24.2852 -23.9009 -23.8546 -23.5033 -12.2130 -12.1984 -11.5145 -11.4353
    -9.5661  -8.8344  -7.9940  -7.7420  -6.5963  -6.4444  -6.1191  -6.0249

          k = 0.2575-0.1328 0.0000 ( 18109 PWs)   bands (ev):

   -24.5091 -24.0990 -23.6182 -23.2510 -12.1651 -12.1227 -11.6290 -11.5804
    -9.8709  -8.9663  -7.7287  -7.3371  -6.5392  -6.4417  -6.2051  -6.0996

          k = 0.2421 0.1535 0.0000 ( 18132 PWs)   bands (ev):

   -24.5102 -24.1057 -23.6173 -23.2444 -12.0674 -11.9215 -11.8952 -11.6821
    -9.7724  -8.8649  -7.8956  -7.3994  -6.4049  -6.3148  -6.2433  -6.2235

          k = 0.2882-0.7053 0.0000 ( 18147 PWs)   bands (ev):

   -24.2830 -23.9200 -23.8470 -23.4931 -12.1855 -12.1442 -11.6351 -11.4894
    -9.4025  -8.6193  -8.2644  -7.8550  -6.5089  -6.3955  -6.1169  -6.0558

          k = 0.2728-0.4190 0.0000 ( 18128 PWs)   bands (ev):

   -24.2813 -23.9013 -23.8535 -23.5068 -12.2346 -12.2291 -11.4905 -11.4308
    -9.5397  -8.8007  -8.0125  -7.7899  -6.5777  -6.4500  -6.0853  -6.0315

          k =-0.5150 0.2656 0.0000 ( 18184 PWs)   bands (ev):

   -24.2766 -23.9026 -23.8519 -23.5111 -12.2450 -12.2234 -11.5021 -11.4300
    -9.5641  -8.8395  -7.9801  -7.7182  -6.5895  -6.4445  -6.1089  -6.0237

          k =-0.5303 0.5518 0.0000 ( 18128 PWs)   bands (ev):

   -24.2786 -23.9203 -23.8465 -23.4968 -12.2015 -12.1605 -11.6262 -11.4842
    -9.4025  -8.6262  -8.2565  -7.8428  -6.5070  -6.3938  -6.1096  -6.0564

          k =-0.4843-0.3070 0.0000 ( 18166 PWs)   bands (ev):

   -24.2794 -23.9391 -23.8395 -23.4845 -12.1105 -11.9484 -11.8951 -11.5839
    -9.2191  -8.6840  -8.1712  -8.0366  -6.3632  -6.2978  -6.1905  -6.1749

     highest occupied level (ev):    -6.0237

!    total energy              =    -176.32085729 Ry

     total all-electron energy =      -611.708402 Ry
     estimated scf accuracy    <          7.1E-13 Ry

     The total energy is the sum of the following terms:
     one-electron contribution =    -667.37206692 Ry
     hartree contribution      =     341.72231315 Ry
     xc contribution           =     -35.62822078 Ry
     ewald contribution        =     223.30802319 Ry
     one-center paw contrib.   =     -38.35090592 Ry

     convergence has been achieved in   8 iterations

     negative rho (up, down):  4.835E-04 0.000E+00

     Forces acting on atoms (cartesian axes, Ry/au):

     atom    1 type  1   force =    -0.00004973   -0.00015221   -0.00008500
     atom    2 type  1   force =     0.00001410    0.00016443    0.00004380
     atom    3 type  1   force =     0.00004076   -0.00001295    0.00000648
     atom    4 type  1   force =    -0.00006516    0.00010736    0.00012893
     atom    5 type  1   force =     0.00001090   -0.00009519   -0.00002790
     atom    6 type  1   force =     0.00006329   -0.00007715    0.00007688
     atom    7 type  1   force =     0.00004064   -0.00001235   -0.00020580
     atom    8 type  1   force =    -0.00018654    0.00000169   -0.00020666
     atom    9 type  2   force =    -0.00006214    0.00003466    0.00021844
     atom   10 type  2   force =    -0.00010463   -0.00007909   -0.00010299
     atom   11 type  2   force =     0.00005093    0.00004775    0.00017109
     atom   12 type  2   force =     0.00024759    0.00007306   -0.00001726

     Total force =     0.000652     Total SCF correction =     0.000001
     Energy error            =      9.2E-07 Ry
     Gradient error          =      2.5E-04 Ry/Bohr

     number of scf cycles    =  60
     number of bfgs steps    =  58

     energy             old  =    -176.3208563637 Ry
     energy             new  =    -176.3208572853 Ry

     CASE: energy            _new < energy            _old

     new trust radius        =       0.0012898373 bohr
     new conv_thr            =            1.0E-12 Ry


ATOMIC_POSITIONS (angstrom)
H             4.4743454674        3.7435685487       11.2230508007
H             5.3209587089        4.3015040866       10.0162137409
H             3.2948337468        1.1586436990        8.0862101934
H             3.1456891182        2.8647584858        9.3226722706
H             3.9923994784        3.4268021725        8.1180939906
H             6.3301034916        3.9841122813        8.0911172053
H             3.0076337996        1.8159969731       11.2545371113
H             2.1362756289        3.1854387654       11.2492661671
O             5.2918848779        4.2788649423       11.0169656062
O             3.1752991143        2.8896711220        8.3220646894
O             5.4253201765        4.3710510267        8.2598212917
O             3.0406428421        2.7976946546       11.0796730107



     Writing config-only to output data dir ./output/f-BH.save/
     NEW-OLD atomic charge density approx. for the potential

     negative rho (up, down):  4.836E-04 0.000E+00

     total cpu time spent up to now is     4597.1 secs

     per-process dynamical memory:   210.7 Mb

     Self-consistent Calculation

     iteration #  1     ecut=    60.00 Ry     beta= 0.70
     Davidson diagonalization with overlap
     ethr =  1.00E-06,  avg # of iterations =  2.0

     Threshold (ethr) on eigenvalues was too large:
     Diagonalizing with lowered threshold

     Davidson diagonalization with overlap
     ethr =  1.09E-09,  avg # of iterations =  3.3

     negative rho (up, down):  4.835E-04 0.000E+00

     total cpu time spent up to now is     4608.8 secs

     total energy              =    -176.32085785 Ry
     estimated scf accuracy    <       0.00000056 Ry

     iteration #  2     ecut=    60.00 Ry     beta= 0.70
     Davidson diagonalization with overlap
     ethr =  1.76E-09,  avg # of iterations =  2.0

     negative rho (up, down):  4.835E-04 0.000E+00

     total cpu time spent up to now is     4614.2 secs

     total energy              =    -176.32085793 Ry
     estimated scf accuracy    <       0.00000006 Ry

     iteration #  3     ecut=    60.00 Ry     beta= 0.70
     Davidson diagonalization with overlap
     ethr =  1.88E-10,  avg # of iterations =  2.0

     negative rho (up, down):  4.835E-04 0.000E+00

     total cpu time spent up to now is     4619.8 secs

     total energy              =    -176.32085795 Ry
     estimated scf accuracy    <          8.7E-09 Ry

     iteration #  4     ecut=    60.00 Ry     beta= 0.70
     Davidson diagonalization with overlap
     ethr =  2.71E-11,  avg # of iterations =  2.0

     negative rho (up, down):  4.836E-04 0.000E+00

     total cpu time spent up to now is     4625.0 secs

     total energy              =    -176.32085795 Ry
     estimated scf accuracy    <          4.0E-10 Ry

     iteration #  5     ecut=    60.00 Ry     beta= 0.70
     Davidson diagonalization with overlap
     ethr =  1.23E-12,  avg # of iterations =  2.9

     negative rho (up, down):  4.836E-04 0.000E+00

     total cpu time spent up to now is     4630.9 secs

     total energy              =    -176.32085795 Ry
     estimated scf accuracy    <          1.1E-10 Ry

     iteration #  6     ecut=    60.00 Ry     beta= 0.70
     Davidson diagonalization with overlap
     ethr =  3.49E-13,  avg # of iterations =  2.0

     negative rho (up, down):  4.836E-04 0.000E+00

     total cpu time spent up to now is     4636.3 secs

     total energy              =    -176.32085795 Ry
     estimated scf accuracy    <          9.4E-12 Ry

     iteration #  7     ecut=    60.00 Ry     beta= 0.70
     Davidson diagonalization with overlap
     ethr =  1.00E-13,  avg # of iterations =  2.0

     negative rho (up, down):  4.836E-04 0.000E+00

     total cpu time spent up to now is     4641.7 secs

     total energy              =    -176.32085795 Ry
     estimated scf accuracy    <          2.6E-12 Ry

     iteration #  8     ecut=    60.00 Ry     beta= 0.70
     Davidson diagonalization with overlap
     ethr =  1.00E-13,  avg # of iterations =  1.0

     negative rho (up, down):  4.836E-04 0.000E+00

     total cpu time spent up to now is     4645.8 secs

     End of self-consistent calculation

          k = 0.0000 0.0000 0.0000 ( 18047 PWs)   bands (ev):

   -24.6467 -24.2324 -23.4462 -23.0853 -12.0234 -11.8849 -11.8767 -11.8119
   -10.1074  -9.0509  -7.5349  -7.0158  -6.4273  -6.4088  -6.3240  -6.1815

          k =-0.0153 0.2863 0.0000 ( 18132 PWs)   bands (ev):

   -24.5109 -24.1008 -23.6163 -23.2491 -12.1471 -12.1015 -11.6460 -11.5813
    -9.8759  -8.9663  -7.7337  -7.3434  -6.5427  -6.4428  -6.2113  -6.0994

          k = 0.0307-0.5725 0.0000 ( 18166 PWs)   bands (ev):

   -24.2850 -23.9000 -23.8550 -23.5029 -12.2129 -12.1986 -11.5134 -11.4337
    -9.5674  -8.8355  -7.9938  -7.7416  -6.5966  -6.4444  -6.1197  -6.0257

          k = 0.2575-0.1328 0.0000 ( 18109 PWs)   bands (ev):

   -24.5088 -24.0989 -23.6178 -23.2507 -12.1650 -12.1226 -11.6281 -11.5798
    -9.8717  -8.9666  -7.7289  -7.3372  -6.5394  -6.4417  -6.2055  -6.1004

          k = 0.2421 0.1535 0.0000 ( 18132 PWs)   bands (ev):

   -24.5099 -24.1054 -23.6170 -23.2442 -12.0668 -11.9208 -11.8947 -11.6820
    -9.7731  -8.8650  -7.8960  -7.3996  -6.4055  -6.3148  -6.2432  -6.2241

          k = 0.2882-0.7053 0.0000 ( 18147 PWs)   bands (ev):

   -24.2826 -23.9191 -23.8474 -23.4929 -12.1853 -12.1441 -11.6339 -11.4885
    -9.4035  -8.6200  -8.2646  -7.8550  -6.5092  -6.3957  -6.1172  -6.0562

          k = 0.2728-0.4190 0.0000 ( 18128 PWs)   bands (ev):

   -24.2811 -23.9003 -23.8540 -23.5064 -12.2348 -12.2290 -11.4893 -11.4295
    -9.5409  -8.8016  -8.0126  -7.7897  -6.5779  -6.4500  -6.0858  -6.0322

          k =-0.5150 0.2656 0.0000 ( 18184 PWs)   bands (ev):

   -24.2764 -23.9016 -23.8524 -23.5107 -12.2452 -12.2233 -11.5008 -11.4289
    -9.5652  -8.8403  -7.9803  -7.7181  -6.5896  -6.4445  -6.1094  -6.0243

          k =-0.5303 0.5518 0.0000 ( 18128 PWs)   bands (ev):

   -24.2782 -23.9194 -23.8469 -23.4967 -12.2013 -12.1602 -11.6250 -11.4835
    -9.4034  -8.6268  -8.2568  -7.8430  -6.5073  -6.3939  -6.1099  -6.0567

          k =-0.4843-0.3070 0.0000 ( 18166 PWs)   bands (ev):

   -24.2789 -23.9381 -23.8399 -23.4845 -12.1099 -11.9477 -11.8943 -11.5836
    -9.2197  -8.6839  -8.1727  -8.0367  -6.3638  -6.2985  -6.1905  -6.1747

     highest occupied level (ev):    -6.0243

!    total energy              =    -176.32085795 Ry

     total all-electron energy =      -611.708403 Ry
     estimated scf accuracy    <          2.1E-13 Ry

     The total energy is the sum of the following terms:
     one-electron contribution =    -667.35996919 Ry
     hartree contribution      =     341.71601471 Ry
     xc contribution           =     -35.62779087 Ry
     ewald contribution        =     223.30179711 Ry
     one-center paw contrib.   =     -38.35090970 Ry

     convergence has been achieved in   8 iterations

     negative rho (up, down):  4.836E-04 0.000E+00

     Forces acting on atoms (cartesian axes, Ry/au):

     atom    1 type  1   force =     0.00001755   -0.00012520   -0.00014803
     atom    2 type  1   force =    -0.00004128    0.00010371    0.00016328
     atom    3 type  1   force =     0.00005819    0.00001976    0.00001469
     atom    4 type  1   force =    -0.00003964    0.00010860   -0.00003314
     atom    5 type  1   force =    -0.00006134   -0.00014796   -0.00003203
     atom    6 type  1   force =    -0.00000003   -0.00006747    0.00007500
     atom    7 type  1   force =     0.00008850   -0.00000286   -0.00018218
     atom    8 type  1   force =     0.00006746   -0.00002579   -0.00022242
     atom    9 type  2   force =     0.00001091    0.00010154    0.00009933
     atom   10 type  2   force =    -0.00005957   -0.00000540    0.00007356
     atom   11 type  2   force =     0.00011031   -0.00000748    0.00017018
     atom   12 type  2   force =    -0.00015107    0.00004855    0.00002175

     Total force =     0.000569     Total SCF correction =     0.000001
     Energy error            =      6.6E-07 Ry
     Gradient error          =      2.2E-04 Ry/Bohr

     number of scf cycles    =  61
     number of bfgs steps    =  59

     energy             old  =    -176.3208572853 Ry
     energy             new  =    -176.3208579464 Ry

     CASE: energy            _new < energy            _old

     new trust radius        =       0.0009733858 bohr
     new conv_thr            =            1.0E-12 Ry


ATOMIC_POSITIONS (angstrom)
H             4.4740493198        3.7432923915       11.2230864679
H             5.3209245899        4.3017168625       10.0165661865
H             3.2948266535        1.1587067447        8.0861358005
H             3.1456218275        2.8648200548        9.3225576616
H             3.9925407059        3.4267189727        8.1180784079
H             6.3302354701        3.9842384138        8.0913165221
H             3.0078204416        1.8160677317       11.2542321988
H             2.1361181730        3.1852435253       11.2488162667
O             5.2916933786        4.2786637943       11.0173457607
O             3.1753224560        2.8896615924        8.3218969868
O             5.4254452991        4.3711927354        8.2601691419
O             3.0407881358        2.7977839389       11.0794846766



     Writing config-only to output data dir ./output/f-BH.save/
     NEW-OLD atomic charge density approx. for the potential

     negative rho (up, down):  4.837E-04 0.000E+00

     total cpu time spent up to now is     4658.5 secs

     per-process dynamical memory:   210.2 Mb

     Self-consistent Calculation

     iteration #  1     ecut=    60.00 Ry     beta= 0.70
     Davidson diagonalization with overlap
     ethr =  1.00E-06,  avg # of iterations =  2.0

     Threshold (ethr) on eigenvalues was too large:
     Diagonalizing with lowered threshold

     Davidson diagonalization with overlap
     ethr =  5.64E-10,  avg # of iterations =  3.2

     negative rho (up, down):  4.836E-04 0.000E+00

     total cpu time spent up to now is     4670.0 secs

     total energy              =    -176.32085842 Ry
     estimated scf accuracy    <       0.00000027 Ry

     iteration #  2     ecut=    60.00 Ry     beta= 0.70
     Davidson diagonalization with overlap
     ethr =  8.58E-10,  avg # of iterations =  2.0

     negative rho (up, down):  4.836E-04 0.000E+00

     total cpu time spent up to now is     4675.4 secs

     total energy              =    -176.32085846 Ry
     estimated scf accuracy    <       0.00000003 Ry

     iteration #  3     ecut=    60.00 Ry     beta= 0.70
     Davidson diagonalization with overlap
     ethr =  8.07E-11,  avg # of iterations =  2.1

     negative rho (up, down):  4.836E-04 0.000E+00

     total cpu time spent up to now is     4681.1 secs

     total energy              =    -176.32085847 Ry
     estimated scf accuracy    <          4.4E-09 Ry

     iteration #  4     ecut=    60.00 Ry     beta= 0.70
     Davidson diagonalization with overlap
     ethr =  1.37E-11,  avg # of iterations =  2.1

     negative rho (up, down):  4.836E-04 0.000E+00

     total cpu time spent up to now is     4686.3 secs

     total energy              =    -176.32085847 Ry
     estimated scf accuracy    <          1.8E-10 Ry

     iteration #  5     ecut=    60.00 Ry     beta= 0.70
     Davidson diagonalization with overlap
     ethr =  5.68E-13,  avg # of iterations =  2.7

     negative rho (up, down):  4.836E-04 0.000E+00

     total cpu time spent up to now is     4692.1 secs

     total energy              =    -176.32085847 Ry
     estimated scf accuracy    <          5.3E-11 Ry

     iteration #  6     ecut=    60.00 Ry     beta= 0.70
     Davidson diagonalization with overlap
     ethr =  1.66E-13,  avg # of iterations =  2.0

     negative rho (up, down):  4.836E-04 0.000E+00

     total cpu time spent up to now is     4697.5 secs

     total energy              =    -176.32085847 Ry
     estimated scf accuracy    <          4.4E-12 Ry

     iteration #  7     ecut=    60.00 Ry     beta= 0.70
     Davidson diagonalization with overlap
     ethr =  1.00E-13,  avg # of iterations =  1.8

     negative rho (up, down):  4.836E-04 0.000E+00

     total cpu time spent up to now is     4702.0 secs

     total energy              =    -176.32085847 Ry
     estimated scf accuracy    <          1.0E-12 Ry

     iteration #  8     ecut=    60.00 Ry     beta= 0.70
     Davidson diagonalization with overlap
     ethr =  1.00E-13,  avg # of iterations =  1.0

     negative rho (up, down):  4.836E-04 0.000E+00

     total cpu time spent up to now is     4706.2 secs

     End of self-consistent calculation

          k = 0.0000 0.0000 0.0000 ( 18047 PWs)   bands (ev):

   -24.6468 -24.2325 -23.4461 -23.0852 -12.0234 -11.8849 -11.8767 -11.8120
   -10.1080  -9.0511  -7.5351  -7.0160  -6.4276  -6.4093  -6.3241  -6.1820

          k =-0.0153 0.2863 0.0000 ( 18132 PWs)   bands (ev):

   -24.5110 -24.1009 -23.6163 -23.2491 -12.1473 -12.1018 -11.6456 -11.5807
    -9.8766  -8.9666  -7.7340  -7.3436  -6.5429  -6.4430  -6.2118  -6.1000

          k = 0.0307-0.5725 0.0000 ( 18166 PWs)   bands (ev):

   -24.2851 -23.8997 -23.8553 -23.5029 -12.2131 -12.1990 -11.5128 -11.4328
    -9.5683  -8.8362  -7.9941  -7.7417  -6.5968  -6.4445  -6.1203  -6.0263

          k = 0.2575-0.1328 0.0000 ( 18109 PWs)   bands (ev):

   -24.5090 -24.0990 -23.6178 -23.2506 -12.1653 -12.1227 -11.6275 -11.5795
    -9.8724  -8.9670  -7.7293  -7.3375  -6.5395  -6.4417  -6.2059  -6.1009

          k = 0.2421 0.1535 0.0000 ( 18132 PWs)   bands (ev):

   -24.5100 -24.1055 -23.6170 -23.2441 -12.0668 -11.9206 -11.8945 -11.6820
    -9.7737  -8.8652  -7.8964  -7.4000  -6.4060  -6.3150  -6.2433  -6.2246

          k = 0.2882-0.7053 0.0000 ( 18147 PWs)   bands (ev):

   -24.2826 -23.9189 -23.8477 -23.4930 -12.1855 -12.1442 -11.6333 -11.4880
    -9.4043  -8.6206  -8.2650  -7.8552  -6.5095  -6.3959  -6.1177  -6.0567

          k = 0.2728-0.4190 0.0000 ( 18128 PWs)   bands (ev):

   -24.2812 -23.9001 -23.8543 -23.5064 -12.2352 -12.2293 -11.4886 -11.4288
    -9.5418  -8.8023  -8.0130  -7.7899  -6.5780  -6.4501  -6.0863  -6.0327

          k =-0.5150 0.2656 0.0000 ( 18184 PWs)   bands (ev):

   -24.2765 -23.9014 -23.8527 -23.5107 -12.2455 -12.2235 -11.5000 -11.4284
    -9.5660  -8.8409  -7.9809  -7.7183  -6.5897  -6.4446  -6.1098  -6.0248

          k =-0.5303 0.5518 0.0000 ( 18128 PWs)   bands (ev):

   -24.2782 -23.9191 -23.8472 -23.4967 -12.2016 -12.1603 -11.6244 -11.4831
    -9.4041  -8.6274  -8.2573  -7.8433  -6.5075  -6.3941  -6.1102  -6.0571

          k =-0.4843-0.3070 0.0000 ( 18166 PWs)   bands (ev):

   -24.2789 -23.9379 -23.8402 -23.4847 -12.1099 -11.9476 -11.8939 -11.5834
    -9.2202  -8.6843  -8.1735  -8.0369  -6.3642  -6.2990  -6.1907  -6.1748

     highest occupied level (ev):    -6.0248

!    total energy              =    -176.32085847 Ry

     total all-electron energy =      -611.708403 Ry
     estimated scf accuracy    <          1.4E-13 Ry

     The total energy is the sum of the following terms:
     one-electron contribution =    -667.36454397 Ry
     hartree contribution      =     341.71797732 Ry
     xc contribution           =     -35.62759367 Ry
     ewald contribution        =     223.30421420 Ry
     one-center paw contrib.   =     -38.35091236 Ry

     convergence has been achieved in   8 iterations

     negative rho (up, down):  4.836E-04 0.000E+00

     Forces acting on atoms (cartesian axes, Ry/au):

     atom    1 type  1   force =     0.00005630   -0.00008709   -0.00014874
     atom    2 type  1   force =    -0.00005683    0.00007319    0.00021894
     atom    3 type  1   force =     0.00006437    0.00003212    0.00003386
     atom    4 type  1   force =    -0.00002406    0.00009575   -0.00010059
     atom    5 type  1   force =    -0.00009717   -0.00015456   -0.00003392
     atom    6 type  1   force =    -0.00004702   -0.00004707    0.00007704
     atom    7 type  1   force =     0.00009248   -0.00001933   -0.00014108
     atom    8 type  1   force =     0.00020154   -0.00004206   -0.00020269
     atom    9 type  2   force =     0.00004568    0.00011589   -0.00000268
     atom   10 type  2   force =    -0.00002168    0.00003833    0.00014001
     atom   11 type  2   force =     0.00014154   -0.00006081    0.00015257
     atom   12 type  2   force =    -0.00035517    0.00005564    0.00000729

     Total force =     0.000697     Total SCF correction =     0.000000
     Energy error            =      5.2E-07 Ry
     Gradient error          =      3.6E-04 Ry/Bohr

     number of scf cycles    =  62
     number of bfgs steps    =  60

     energy             old  =    -176.3208579464 Ry
     energy             new  =    -176.3208584658 Ry

     CASE: energy            _new < energy            _old

     new trust radius        =       0.0010707244 bohr
     new conv_thr            =            1.0E-12 Ry


ATOMIC_POSITIONS (angstrom)
H             4.4739062770        3.7431103675       11.2231056201
H             5.3209443945        4.3019570971       10.0169494599
H             3.2949350447        1.1586300163        8.0861496158
H             3.1454226571        2.8650295915        9.3224891062
H             3.9925448684        3.4264858581        8.1180057849
H             6.3303071316        3.9841057553        8.0915115986
H             3.0080092581        1.8161880384       11.2538540394
H             2.1360236914        3.1852091062       11.2482586580
O             5.2915953209        4.2786444117       11.0177371943
O             3.1752011894        2.8896032335        8.3217713533
O             5.4255994231        4.3711937339        8.2606223770
O             3.0408971946        2.7979495485       11.0792312702



     Writing config-only to output data dir ./output/f-BH.save/
     NEW-OLD atomic charge density approx. for the potential

     negative rho (up, down):  4.838E-04 0.000E+00

     total cpu time spent up to now is     4718.8 secs

     per-process dynamical memory:   210.7 Mb

     Self-consistent Calculation

     iteration #  1     ecut=    60.00 Ry     beta= 0.70
     Davidson diagonalization with overlap
     ethr =  1.00E-06,  avg # of iterations =  2.0

     Threshold (ethr) on eigenvalues was too large:
     Diagonalizing with lowered threshold

     Davidson diagonalization with overlap
     ethr =  6.17E-10,  avg # of iterations =  3.0

     negative rho (up, down):  4.837E-04 0.000E+00

     total cpu time spent up to now is     4730.0 secs

     total energy              =    -176.32085905 Ry
     estimated scf accuracy    <       0.00000027 Ry

     iteration #  2     ecut=    60.00 Ry     beta= 0.70
     Davidson diagonalization with overlap
     ethr =  8.46E-10,  avg # of iterations =  2.0

     negative rho (up, down):  4.837E-04 0.000E+00

     total cpu time spent up to now is     4735.4 secs

     total energy              =    -176.32085908 Ry
     estimated scf accuracy    <       0.00000002 Ry

     iteration #  3     ecut=    60.00 Ry     beta= 0.70
     Davidson diagonalization with overlap
     ethr =  7.31E-11,  avg # of iterations =  2.0

     negative rho (up, down):  4.837E-04 0.000E+00

     total cpu time spent up to now is     4741.0 secs

     total energy              =    -176.32085908 Ry
     estimated scf accuracy    <          5.5E-09 Ry

     iteration #  4     ecut=    60.00 Ry     beta= 0.70
     Davidson diagonalization with overlap
     ethr =  1.72E-11,  avg # of iterations =  2.0

     negative rho (up, down):  4.837E-04 0.000E+00

     total cpu time spent up to now is     4746.3 secs

     total energy              =    -176.32085909 Ry
     estimated scf accuracy    <          1.8E-10 Ry

     iteration #  5     ecut=    60.00 Ry     beta= 0.70
     Davidson diagonalization with overlap
     ethr =  5.53E-13,  avg # of iterations =  3.0

     negative rho (up, down):  4.837E-04 0.000E+00

     total cpu time spent up to now is     4752.5 secs

     total energy              =    -176.32085909 Ry
     estimated scf accuracy    <          9.9E-11 Ry

     iteration #  6     ecut=    60.00 Ry     beta= 0.70
     Davidson diagonalization with overlap
     ethr =  3.10E-13,  avg # of iterations =  2.0

     negative rho (up, down):  4.837E-04 0.000E+00

     total cpu time spent up to now is     4757.8 secs

     total energy              =    -176.32085909 Ry
     estimated scf accuracy    <          9.5E-12 Ry

     iteration #  7     ecut=    60.00 Ry     beta= 0.70
     Davidson diagonalization with overlap
     ethr =  1.00E-13,  avg # of iterations =  2.0

     negative rho (up, down):  4.837E-04 0.000E+00

     total cpu time spent up to now is     4763.2 secs

     total energy              =    -176.32085909 Ry
     estimated scf accuracy    <          1.9E-12 Ry

     iteration #  8     ecut=    60.00 Ry     beta= 0.70
     Davidson diagonalization with overlap
     ethr =  1.00E-13,  avg # of iterations =  1.0

     negative rho (up, down):  4.837E-04 0.000E+00

     total cpu time spent up to now is     4767.3 secs

     End of self-consistent calculation

          k = 0.0000 0.0000 0.0000 ( 18047 PWs)   bands (ev):

   -24.6471 -24.2327 -23.4462 -23.0851 -12.0236 -11.8848 -11.8766 -11.8121
   -10.1084  -9.0512  -7.5355  -7.0162  -6.4279  -6.4097  -6.3244  -6.1822

          k =-0.0153 0.2863 0.0000 ( 18132 PWs)   bands (ev):

   -24.5113 -24.1011 -23.6164 -23.2491 -12.1476 -12.1022 -11.6452 -11.5803
    -9.8772  -8.9669  -7.7345  -7.3439  -6.5431  -6.4431  -6.2122  -6.1004

          k = 0.0307-0.5725 0.0000 ( 18166 PWs)   bands (ev):

   -24.2854 -23.8998 -23.8555 -23.5029 -12.2133 -12.1996 -11.5122 -11.4321
    -9.5690  -8.8366  -7.9947  -7.7421  -6.5969  -6.4445  -6.1208  -6.0268

          k = 0.2575-0.1328 0.0000 ( 18109 PWs)   bands (ev):

   -24.5092 -24.0991 -23.6180 -23.2506 -12.1656 -12.1229 -11.6271 -11.5792
    -9.8730  -8.9673  -7.7298  -7.3379  -6.5395  -6.4419  -6.2064  -6.1013

          k = 0.2421 0.1535 0.0000 ( 18132 PWs)   bands (ev):

   -24.5103 -24.1056 -23.6171 -23.2441 -12.0671 -11.9205 -11.8944 -11.6819
    -9.7743  -8.8655  -7.8968  -7.4003  -6.4062  -6.3153  -6.2435  -6.2249

          k = 0.2882-0.7053 0.0000 ( 18147 PWs)   bands (ev):

   -24.2829 -23.9189 -23.8479 -23.4930 -12.1858 -12.1445 -11.6327 -11.4875
    -9.4049  -8.6211  -8.2656  -7.8556  -6.5097  -6.3960  -6.1180  -6.0571

          k = 0.2728-0.4190 0.0000 ( 18128 PWs)   bands (ev):

   -24.2814 -23.9002 -23.8545 -23.5065 -12.2355 -12.2296 -11.4879 -11.4281
    -9.5424  -8.8028  -8.0138  -7.7903  -6.5781  -6.4502  -6.0868  -6.0332

          k =-0.5150 0.2656 0.0000 ( 18184 PWs)   bands (ev):

   -24.2766 -23.9015 -23.8528 -23.5108 -12.2458 -12.2237 -11.4993 -11.4278
    -9.5666  -8.8414  -7.9818  -7.7187  -6.5896  -6.4448  -6.1102  -6.0253

          k =-0.5303 0.5518 0.0000 ( 18128 PWs)   bands (ev):

   -24.2784 -23.9192 -23.8474 -23.4968 -12.2019 -12.1604 -11.6238 -11.4827
    -9.4046  -8.6279  -8.2580  -7.8437  -6.5075  -6.3943  -6.1106  -6.0575

          k =-0.4843-0.3070 0.0000 ( 18166 PWs)   bands (ev):

   -24.2792 -23.9380 -23.8404 -23.4847 -12.1102 -11.9477 -11.8934 -11.5832
    -9.2207  -8.6852  -8.1740  -8.0370  -6.3644  -6.2993  -6.1910  -6.1749

     highest occupied level (ev):    -6.0253

!    total energy              =    -176.32085909 Ry

     total all-electron energy =      -611.708404 Ry
     estimated scf accuracy    <          5.1E-13 Ry

     The total energy is the sum of the following terms:
     one-electron contribution =    -667.38261887 Ry
     hartree contribution      =     341.72673685 Ry
     xc contribution           =     -35.62750860 Ry
     ewald contribution        =     223.31344678 Ry
     one-center paw contrib.   =     -38.35091525 Ry

     convergence has been achieved in   8 iterations

     negative rho (up, down):  4.837E-04 0.000E+00

     Forces acting on atoms (cartesian axes, Ry/au):

     atom    1 type  1   force =     0.00008444   -0.00004386   -0.00012596
     atom    2 type  1   force =    -0.00005574    0.00005889    0.00022226
     atom    3 type  1   force =     0.00005911    0.00002506    0.00005782
     atom    4 type  1   force =    -0.00000397    0.00006453   -0.00015360
     atom    5 type  1   force =    -0.00011296   -0.00013650   -0.00003671
     atom    6 type  1   force =    -0.00005970   -0.00002554    0.00007930
     atom    7 type  1   force =     0.00007797   -0.00000177   -0.00010294
     atom    8 type  1   force =     0.00025272   -0.00004578   -0.00015022
     atom    9 type  2   force =     0.00005371    0.00010595   -0.00007530
     atom   10 type  2   force =     0.00001668    0.00005906    0.00018715
     atom   11 type  2   force =     0.00012823   -0.00008292    0.00012600
     atom   12 type  2   force =    -0.00044049    0.00002289   -0.00002781

     Total force =     0.000747     Total SCF correction =     0.000001
     Energy error            =      6.2E-07 Ry
     Gradient error          =      4.4E-04 Ry/Bohr

     number of scf cycles    =  63
     number of bfgs steps    =  61

     energy             old  =    -176.3208584658 Ry
     energy             new  =    -176.3208590858 Ry

     CASE: energy            _new < energy            _old

     new trust radius        =       0.0016060866 bohr
     new conv_thr            =            1.0E-12 Ry


ATOMIC_POSITIONS (angstrom)
H             4.4738990641        3.7430520359       11.2231602632
H             5.3210386953        4.3022679782       10.0174995603
H             3.2952106412        1.1583281515        8.0862759603
H             3.1449912547        2.8654323697        9.3224036445
H             3.9923867208        3.4260162396        8.1178570598
H             6.3303181568        3.9836116707        8.0917686418
H             3.0083007771        1.8164607745       11.2532669362
H             2.1359776095        3.1853774495       11.2474268680
O             5.2915955992        4.2788346177       11.0182759770
O             3.1748888153        2.8894616948        8.3216538848
O             5.4258091065        4.3710091025        8.2613557588
O             3.0409700103        2.7982546734       11.0787415230



     Writing config-only to output data dir ./output/f-BH.save/
     NEW-OLD atomic charge density approx. for the potential

     negative rho (up, down):  4.839E-04 0.000E+00

     total cpu time spent up to now is     4780.0 secs

     per-process dynamical memory:   210.2 Mb

     Self-consistent Calculation

     iteration #  1     ecut=    60.00 Ry     beta= 0.70
     Davidson diagonalization with overlap
     ethr =  1.00E-06,  avg # of iterations =  2.0

     Threshold (ethr) on eigenvalues was too large:
     Diagonalizing with lowered threshold

     Davidson diagonalization with overlap
     ethr =  1.48E-09,  avg # of iterations =  3.0

     negative rho (up, down):  4.839E-04 0.000E+00

     total cpu time spent up to now is     4791.6 secs

     total energy              =    -176.32085980 Ry
     estimated scf accuracy    <       0.00000065 Ry

     iteration #  2     ecut=    60.00 Ry     beta= 0.70
     Davidson diagonalization with overlap
     ethr =  2.03E-09,  avg # of iterations =  2.0

     negative rho (up, down):  4.838E-04 0.000E+00

     total cpu time spent up to now is     4796.6 secs

     total energy              =    -176.32085987 Ry
     estimated scf accuracy    <       0.00000004 Ry

     iteration #  3     ecut=    60.00 Ry     beta= 0.70
     Davidson diagonalization with overlap
     ethr =  1.35E-10,  avg # of iterations =  2.0

     negative rho (up, down):  4.838E-04 0.000E+00

     total cpu time spent up to now is     4802.2 secs

     total energy              =    -176.32085987 Ry
     estimated scf accuracy    <       0.00000001 Ry

     iteration #  4     ecut=    60.00 Ry     beta= 0.70
     Davidson diagonalization with overlap
     ethr =  3.59E-11,  avg # of iterations =  2.1

     negative rho (up, down):  4.838E-04 0.000E+00

     total cpu time spent up to now is     4807.7 secs

     total energy              =    -176.32085988 Ry
     estimated scf accuracy    <          5.5E-10 Ry

     iteration #  5     ecut=    60.00 Ry     beta= 0.70
     Davidson diagonalization with overlap
     ethr =  1.72E-12,  avg # of iterations =  2.1

     negative rho (up, down):  4.838E-04 0.000E+00

     total cpu time spent up to now is     4813.2 secs

     total energy              =    -176.32085988 Ry
     estimated scf accuracy    <          1.2E-10 Ry

     iteration #  6     ecut=    60.00 Ry     beta= 0.70
     Davidson diagonalization with overlap
     ethr =  3.68E-13,  avg # of iterations =  2.0

     negative rho (up, down):  4.838E-04 0.000E+00

     total cpu time spent up to now is     4818.7 secs

     total energy              =    -176.32085988 Ry
     estimated scf accuracy    <          7.8E-12 Ry

     iteration #  7     ecut=    60.00 Ry     beta= 0.70
     Davidson diagonalization with overlap
     ethr =  1.00E-13,  avg # of iterations =  2.0

     negative rho (up, down):  4.838E-04 0.000E+00

     total cpu time spent up to now is     4823.9 secs

     total energy              =    -176.32085988 Ry
     estimated scf accuracy    <          1.4E-12 Ry

     iteration #  8     ecut=    60.00 Ry     beta= 0.70
     Davidson diagonalization with overlap
     ethr =  1.00E-13,  avg # of iterations =  1.0

     negative rho (up, down):  4.838E-04 0.000E+00

     total cpu time spent up to now is     4828.0 secs

     End of self-consistent calculation

          k = 0.0000 0.0000 0.0000 ( 18047 PWs)   bands (ev):

   -24.6477 -24.2330 -23.4466 -23.0851 -12.0242 -11.8850 -11.8765 -11.8121
   -10.1088  -9.0512  -7.5362  -7.0164  -6.4283  -6.4099  -6.3245  -6.1823

          k =-0.0153 0.2863 0.0000 ( 18132 PWs)   bands (ev):

   -24.5119 -24.1014 -23.6168 -23.2491 -12.1481 -12.1028 -11.6447 -11.5799
    -9.8777  -8.9670  -7.7353  -7.3443  -6.5432  -6.4429  -6.2125  -6.1009

          k = 0.0307-0.5725 0.0000 ( 18166 PWs)   bands (ev):

   -24.2860 -23.9004 -23.8557 -23.5028 -12.2138 -12.2005 -11.5115 -11.4313
    -9.5696  -8.8368  -7.9958  -7.7425  -6.5970  -6.4443  -6.1212  -6.0273

          k = 0.2575-0.1328 0.0000 ( 18109 PWs)   bands (ev):

   -24.5097 -24.0993 -23.6184 -23.2507 -12.1661 -12.1233 -11.6266 -11.5788
    -9.8734  -8.9674  -7.7308  -7.3383  -6.5393  -6.4421  -6.2068  -6.1017

          k = 0.2421 0.1535 0.0000 ( 18132 PWs)   bands (ev):

   -24.5109 -24.1059 -23.6174 -23.2441 -12.0678 -11.9205 -11.8942 -11.6817
    -9.7748  -8.8658  -7.8975  -7.4005  -6.4063  -6.3157  -6.2437  -6.2251

          k = 0.2882-0.7053 0.0000 ( 18147 PWs)   bands (ev):

   -24.2836 -23.9194 -23.8480 -23.4930 -12.1866 -12.1449 -11.6320 -11.4870
    -9.4055  -8.6215  -8.2664  -7.8559  -6.5098  -6.3959  -6.1183  -6.0574

          k = 0.2728-0.4190 0.0000 ( 18128 PWs)   bands (ev):

   -24.2818 -23.9008 -23.8546 -23.5066 -12.2360 -12.2302 -11.4871 -11.4274
    -9.5429  -8.8030  -8.0151  -7.7907  -6.5780  -6.4501  -6.0872  -6.0336

          k =-0.5150 0.2656 0.0000 ( 18184 PWs)   bands (ev):

   -24.2768 -23.9022 -23.8529 -23.5112 -12.2462 -12.2242 -11.4985 -11.4271
    -9.5669  -8.8417  -7.9833  -7.7193  -6.5893  -6.4450  -6.1107  -6.0257

          k =-0.5303 0.5518 0.0000 ( 18128 PWs)   bands (ev):

   -24.2789 -23.9197 -23.8475 -23.4970 -12.2026 -12.1606 -11.6231 -11.4823
    -9.4050  -8.6284  -8.2591  -7.8441  -6.5074  -6.3946  -6.1109  -6.0577

          k =-0.4843-0.3070 0.0000 ( 18166 PWs)   bands (ev):

   -24.2799 -23.9384 -23.8405 -23.4847 -12.1110 -11.9482 -11.8925 -11.5829
    -9.2211  -8.6867  -8.1739  -8.0371  -6.3644  -6.2995  -6.1914  -6.1750

     highest occupied level (ev):    -6.0257

!    total energy              =    -176.32085988 Ry

     total all-electron energy =      -611.708405 Ry
     estimated scf accuracy    <          1.9E-13 Ry

     The total energy is the sum of the following terms:
     one-electron contribution =    -667.42688394 Ry
     hartree contribution      =     341.74864462 Ry
     xc contribution           =     -35.62762057 Ry
     ewald contribution        =     223.33591891 Ry
     one-center paw contrib.   =     -38.35091890 Ry

     convergence has been achieved in   8 iterations

     negative rho (up, down):  4.838E-04 0.000E+00

     Forces acting on atoms (cartesian axes, Ry/au):

     atom    1 type  1   force =     0.00010004    0.00000569   -0.00007195
     atom    2 type  1   force =    -0.00003654    0.00006144    0.00016647
     atom    3 type  1   force =     0.00003502    0.00001228    0.00009195
     atom    4 type  1   force =     0.00002808    0.00000574   -0.00014253
     atom    5 type  1   force =    -0.00010051   -0.00007996   -0.00004202
     atom    6 type  1   force =    -0.00005310    0.00000602    0.00008658
     atom    7 type  1   force =     0.00002642    0.00000220   -0.00004694
     atom    8 type  1   force =     0.00021969   -0.00004534   -0.00004924
     atom    9 type  2   force =     0.00004188    0.00007212   -0.00013217
     atom   10 type  2   force =     0.00005091    0.00005198    0.00015780
     atom   11 type  2   force =     0.00008613   -0.00009631    0.00007792
     atom   12 type  2   force =    -0.00039804    0.00000414   -0.00009588

     Total force =     0.000639     Total SCF correction =     0.000001
     Energy error            =      7.9E-07 Ry
     Gradient error          =      4.0E-04 Ry/Bohr

     number of scf cycles    =  64
     number of bfgs steps    =  62

     energy             old  =    -176.3208590858 Ry
     energy             new  =    -176.3208598753 Ry

     CASE: energy            _new < energy            _old

     new trust radius        =       0.0016262070 bohr
     new conv_thr            =            1.0E-12 Ry


ATOMIC_POSITIONS (angstrom)
H             4.4741490819        3.7432615929       11.2232700511
H             5.3212141728        4.3025448637       10.0179630731
H             3.2955669086        1.1578045757        8.0865593062
H             3.1444513338        2.8658940621        9.3223489973
H             3.9920420401        3.4254604291        8.1176428303
H             6.3302169896        3.9828011873        8.0919655547
H             3.0085329165        1.8168190128       11.2527215397
H             2.1360565661        3.1857902875       11.2466882471
O             5.2917723275        4.2792796823       11.0187026424
O             3.1744536397        2.8892440630        8.3215903753
O             5.4259719038        4.3705767627        8.2620817950
O             3.0409585706        2.7986302390       11.0781516656



     Writing config-only to output data dir ./output/f-BH.save/
     NEW-OLD atomic charge density approx. for the potential

     negative rho (up, down):  4.841E-04 0.000E+00

     total cpu time spent up to now is     4840.7 secs

     per-process dynamical memory:   210.7 Mb

     Self-consistent Calculation

     iteration #  1     ecut=    60.00 Ry     beta= 0.70
     Davidson diagonalization with overlap
     ethr =  1.00E-06,  avg # of iterations =  2.0

     Threshold (ethr) on eigenvalues was too large:
     Diagonalizing with lowered threshold

     Davidson diagonalization with overlap
     ethr =  1.82E-09,  avg # of iterations =  3.0

     negative rho (up, down):  4.840E-04 0.000E+00

     total cpu time spent up to now is     4852.5 secs

     total energy              =    -176.32086026 Ry
     estimated scf accuracy    <       0.00000085 Ry

     iteration #  2     ecut=    60.00 Ry     beta= 0.70
     Davidson diagonalization with overlap
     ethr =  2.67E-09,  avg # of iterations =  2.0

     negative rho (up, down):  4.840E-04 0.000E+00

     total cpu time spent up to now is     4857.7 secs

     total energy              =    -176.32086036 Ry
     estimated scf accuracy    <       0.00000006 Ry

     iteration #  3     ecut=    60.00 Ry     beta= 0.70
     Davidson diagonalization with overlap
     ethr =  1.85E-10,  avg # of iterations =  2.0

     negative rho (up, down):  4.840E-04 0.000E+00

     total cpu time spent up to now is     4863.2 secs

     total energy              =    -176.32086037 Ry
     estimated scf accuracy    <       0.00000001 Ry

     iteration #  4     ecut=    60.00 Ry     beta= 0.70
     Davidson diagonalization with overlap
     ethr =  4.32E-11,  avg # of iterations =  2.0

     negative rho (up, down):  4.840E-04 0.000E+00

     total cpu time spent up to now is     4868.7 secs

     total energy              =    -176.32086037 Ry
     estimated scf accuracy    <          9.1E-10 Ry

     iteration #  5     ecut=    60.00 Ry     beta= 0.70
     Davidson diagonalization with overlap
     ethr =  2.85E-12,  avg # of iterations =  2.0

     negative rho (up, down):  4.840E-04 0.000E+00

     total cpu time spent up to now is     4874.0 secs

     total energy              =    -176.32086037 Ry
     estimated scf accuracy    <          8.9E-11 Ry

     iteration #  6     ecut=    60.00 Ry     beta= 0.70
     Davidson diagonalization with overlap
     ethr =  2.78E-13,  avg # of iterations =  2.0

     negative rho (up, down):  4.840E-04 0.000E+00

     total cpu time spent up to now is     4879.5 secs

     total energy              =    -176.32086037 Ry
     estimated scf accuracy    <          2.2E-12 Ry

     iteration #  7     ecut=    60.00 Ry     beta= 0.70
     Davidson diagonalization with overlap
     ethr =  1.00E-13,  avg # of iterations =  1.2

     negative rho (up, down):  4.840E-04 0.000E+00

     total cpu time spent up to now is     4883.8 secs

     total energy              =    -176.32086037 Ry
     estimated scf accuracy    <          1.1E-12 Ry

     iteration #  8     ecut=    60.00 Ry     beta= 0.70
     Davidson diagonalization with overlap
     ethr =  1.00E-13,  avg # of iterations =  1.0

     negative rho (up, down):  4.840E-04 0.000E+00

     total cpu time spent up to now is     4888.0 secs

     End of self-consistent calculation

          k = 0.0000 0.0000 0.0000 ( 18047 PWs)   bands (ev):

   -24.6482 -24.2331 -23.4470 -23.0851 -12.0249 -11.8851 -11.8764 -11.8120
   -10.1088  -9.0509  -7.5370  -7.0163  -6.4284  -6.4099  -6.3245  -6.1822

          k =-0.0153 0.2863 0.0000 ( 18132 PWs)   bands (ev):

   -24.5124 -24.1016 -23.6172 -23.2490 -12.1486 -12.1034 -11.6442 -11.5797
    -9.8778  -8.9667  -7.7363  -7.3445  -6.5432  -6.4425  -6.2125  -6.1010

          k = 0.0307-0.5725 0.0000 ( 18166 PWs)   bands (ev):

   -24.2867 -23.9011 -23.8556 -23.5027 -12.2143 -12.2012 -11.5108 -11.4310
    -9.5697  -8.8364  -7.9970  -7.7429  -6.5969  -6.4438  -6.1212  -6.0275

          k = 0.2575-0.1328 0.0000 ( 18109 PWs)   bands (ev):

   -24.5101 -24.0995 -23.6190 -23.2508 -12.1665 -12.1236 -11.6263 -11.5784
    -9.8735  -8.9673  -7.7318  -7.3386  -6.5389  -6.4422  -6.2070  -6.1017

          k = 0.2421 0.1535 0.0000 ( 18132 PWs)   bands (ev):

   -24.5115 -24.1062 -23.6178 -23.2441 -12.0687 -11.9206 -11.8941 -11.6815
    -9.7749  -8.8657  -7.8981  -7.4004  -6.4061  -6.3158  -6.2437  -6.2250

          k = 0.2882-0.7053 0.0000 ( 18147 PWs)   bands (ev):

   -24.2844 -23.9200 -23.8480 -23.4928 -12.1873 -12.1453 -11.6315 -11.4868
    -9.4056  -8.6214  -8.2672  -7.8560  -6.5097  -6.3957  -6.1182  -6.0575

          k = 0.2728-0.4190 0.0000 ( 18128 PWs)   bands (ev):

   -24.2822 -23.9015 -23.8545 -23.5068 -12.2364 -12.2307 -11.4865 -11.4270
    -9.5428  -8.8028  -8.0165  -7.7911  -6.5778  -6.4499  -6.0874  -6.0336

          k =-0.5150 0.2656 0.0000 ( 18184 PWs)   bands (ev):

   -24.2769 -23.9032 -23.8527 -23.5117 -12.2464 -12.2247 -11.4978 -11.4265
    -9.5667  -8.8416  -7.9849  -7.7198  -6.5888  -6.4451  -6.1108  -6.0257

          k =-0.5303 0.5518 0.0000 ( 18128 PWs)   bands (ev):

   -24.2794 -23.9204 -23.8475 -23.4970 -12.2032 -12.1607 -11.6227 -11.4819
    -9.4050  -8.6285  -8.2601  -7.8442  -6.5071  -6.3947  -6.1111  -6.0577

          k =-0.4843-0.3070 0.0000 ( 18166 PWs)   bands (ev):

   -24.2808 -23.9390 -23.8404 -23.4844 -12.1119 -11.9488 -11.8917 -11.5827
    -9.2211  -8.6884  -8.1732  -8.0368  -6.3641  -6.2994  -6.1917  -6.1749

     highest occupied level (ev):    -6.0257

!    total energy              =    -176.32086037 Ry

     total all-electron energy =      -611.708405 Ry
     estimated scf accuracy    <          9.4E-14 Ry

     The total energy is the sum of the following terms:
     one-electron contribution =    -667.48523075 Ry
     hartree contribution      =     341.77786361 Ry
     xc contribution           =     -35.62792635 Ry
     ewald contribution        =     223.36535512 Ry
     one-center paw contrib.   =     -38.35092200 Ry

     convergence has been achieved in   8 iterations

     negative rho (up, down):  4.840E-04 0.000E+00

     Forces acting on atoms (cartesian axes, Ry/au):

     atom    1 type  1   force =     0.00008564    0.00003502   -0.00001336
     atom    2 type  1   force =    -0.00000626    0.00007916    0.00004684
     atom    3 type  1   force =    -0.00000163   -0.00000850    0.00011428
     atom    4 type  1   force =     0.00006082   -0.00005921   -0.00008473
     atom    5 type  1   force =    -0.00005419   -0.00000674   -0.00004603
     atom    6 type  1   force =    -0.00000408    0.00002639    0.00009329
     atom    7 type  1   force =    -0.00003576    0.00002415   -0.00001102
     atom    8 type  1   force =     0.00007756   -0.00002798    0.00005967
     atom    9 type  2   force =     0.00000788    0.00002877   -0.00011098
     atom   10 type  2   force =     0.00006016    0.00000665    0.00007654
     atom   11 type  2   force =     0.00000558   -0.00006276    0.00003259
     atom   12 type  2   force =    -0.00019571   -0.00003495   -0.00015709

     Total force =     0.000404     Total SCF correction =     0.000001
     Energy error            =      5.0E-07 Ry
     Gradient error          =      2.0E-04 Ry/Bohr

     number of scf cycles    =  65
     number of bfgs steps    =  63

     energy             old  =    -176.3208598753 Ry
     energy             new  =    -176.3208603706 Ry

     CASE: energy            _new < energy            _old

     new trust radius        =       0.0007639072 bohr
     new conv_thr            =            1.0E-12 Ry


ATOMIC_POSITIONS (angstrom)
H             4.4743687814        3.7434803820       11.2233332639
H             5.3213049709        4.3026345479       10.0180489815
H             3.2956997344        1.1575266453        8.0867524425
H             3.1442610868        2.8660153682        9.3223289318
H             3.9918413203        3.4252579287        8.1175363786
H             6.3301348097        3.9824103630        8.0920281224
H             3.0085725730        1.8169872556       11.2525736832
H             2.1361364278        3.1860357529       11.2465536888
O             5.2919207212        4.2795546175       11.0187667399
O             3.1742806321        2.8891246006        8.3215994979
O             5.4259815056        4.3703142809        8.2623028194
O             3.0408838876        2.7987650154       11.0778615281



     Writing config-only to output data dir ./output/f-BH.save/
     NEW-OLD atomic charge density approx. for the potential

     negative rho (up, down):  4.840E-04 0.000E+00

     total cpu time spent up to now is     4900.6 secs

     per-process dynamical memory:   210.2 Mb

     Self-consistent Calculation

     iteration #  1     ecut=    60.00 Ry     beta= 0.70
     Davidson diagonalization with overlap
     ethr =  1.00E-06,  avg # of iterations =  2.0

     Threshold (ethr) on eigenvalues was too large:
     Diagonalizing with lowered threshold

     Davidson diagonalization with overlap
     ethr =  3.56E-10,  avg # of iterations =  3.3

     negative rho (up, down):  4.840E-04 0.000E+00

     total cpu time spent up to now is     4912.3 secs

     total energy              =    -176.32086052 Ry
     estimated scf accuracy    <       0.00000018 Ry

     iteration #  2     ecut=    60.00 Ry     beta= 0.70
     Davidson diagonalization with overlap
     ethr =  5.62E-10,  avg # of iterations =  2.0

     negative rho (up, down):  4.840E-04 0.000E+00

     total cpu time spent up to now is     4917.6 secs

     total energy              =    -176.32086054 Ry
     estimated scf accuracy    <       0.00000001 Ry

     iteration #  3     ecut=    60.00 Ry     beta= 0.70
     Davidson diagonalization with overlap
     ethr =  4.55E-11,  avg # of iterations =  2.0

     negative rho (up, down):  4.840E-04 0.000E+00

     total cpu time spent up to now is     4923.1 secs

     total energy              =    -176.32086055 Ry
     estimated scf accuracy    <          2.8E-09 Ry

     iteration #  4     ecut=    60.00 Ry     beta= 0.70
     Davidson diagonalization with overlap
     ethr =  8.62E-12,  avg # of iterations =  2.0

     negative rho (up, down):  4.840E-04 0.000E+00

     total cpu time spent up to now is     4928.6 secs

     total energy              =    -176.32086055 Ry
     estimated scf accuracy    <          1.6E-10 Ry

     iteration #  5     ecut=    60.00 Ry     beta= 0.70
     Davidson diagonalization with overlap
     ethr =  5.09E-13,  avg # of iterations =  2.0

     negative rho (up, down):  4.840E-04 0.000E+00

     total cpu time spent up to now is     4934.0 secs

     total energy              =    -176.32086055 Ry
     estimated scf accuracy    <          1.7E-11 Ry

     iteration #  6     ecut=    60.00 Ry     beta= 0.70
     Davidson diagonalization with overlap
     ethr =  1.00E-13,  avg # of iterations =  2.0

     negative rho (up, down):  4.840E-04 0.000E+00

     total cpu time spent up to now is     4938.9 secs

     End of self-consistent calculation

          k = 0.0000 0.0000 0.0000 ( 18047 PWs)   bands (ev):

   -24.6484 -24.2331 -23.4473 -23.0851 -12.0252 -11.8851 -11.8764 -11.8119
   -10.1086  -9.0506  -7.5372  -7.0161  -6.4282  -6.4097  -6.3244  -6.1819

          k =-0.0153 0.2863 0.0000 ( 18132 PWs)   bands (ev):

   -24.5126 -24.1016 -23.6174 -23.2490 -12.1488 -12.1035 -11.6440 -11.5799
    -9.8775  -8.9664  -7.7366  -7.3444  -6.5430  -6.4423  -6.2122  -6.1008

          k = 0.0307-0.5725 0.0000 ( 18166 PWs)   bands (ev):

   -24.2869 -23.9014 -23.8555 -23.5026 -12.2145 -12.2013 -11.5106 -11.4312
    -9.5694  -8.8359  -7.9975  -7.7428  -6.5966  -6.4436  -6.1209  -6.0272

          k = 0.2575-0.1328 0.0000 ( 18109 PWs)   bands (ev):

   -24.5103 -24.0994 -23.6193 -23.2509 -12.1666 -12.1236 -11.6264 -11.5783
    -9.8732  -8.9670  -7.7321  -7.3384  -6.5386  -6.4422  -6.2068  -6.1015

          k = 0.2421 0.1535 0.0000 ( 18132 PWs)   bands (ev):

   -24.5117 -24.1062 -23.6179 -23.2440 -12.0690 -11.9206 -11.8941 -11.6814
    -9.7747  -8.8655  -7.8982  -7.4002  -6.4059  -6.3157  -6.2435  -6.2247

          k = 0.2882-0.7053 0.0000 ( 18147 PWs)   bands (ev):

   -24.2847 -23.9203 -23.8479 -23.4926 -12.1876 -12.1453 -11.6314 -11.4869
    -9.4054  -8.6211  -8.2675  -7.8559  -6.5095  -6.3955  -6.1180  -6.0573

          k = 0.2728-0.4190 0.0000 ( 18128 PWs)   bands (ev):

   -24.2823 -23.9019 -23.8544 -23.5068 -12.2364 -12.2308 -11.4863 -11.4270
    -9.5425  -8.8024  -8.0169  -7.7910  -6.5775  -6.4498  -6.0872  -6.0334

          k =-0.5150 0.2656 0.0000 ( 18184 PWs)   bands (ev):

   -24.2769 -23.9036 -23.8525 -23.5118 -12.2464 -12.2249 -11.4978 -11.4264
    -9.5664  -8.8412  -7.9854  -7.7198  -6.5886  -6.4450  -6.1106  -6.0256

          k =-0.5303 0.5518 0.0000 ( 18128 PWs)   bands (ev):

   -24.2796 -23.9207 -23.8474 -23.4970 -12.2033 -12.1608 -11.6226 -11.4819
    -9.4047  -8.6283  -8.2603  -7.8440  -6.5068  -6.3946  -6.1109  -6.0575

          k =-0.4843-0.3070 0.0000 ( 18166 PWs)   bands (ev):

   -24.2811 -23.9392 -23.8403 -23.4842 -12.1122 -11.9490 -11.8915 -11.5827
    -9.2208  -8.6889  -8.1727  -8.0366  -6.3638  -6.2992  -6.1917  -6.1748

     highest occupied level (ev):    -6.0256

!    total energy              =    -176.32086055 Ry

     total all-electron energy =      -611.708405 Ry
     estimated scf accuracy    <          7.6E-13 Ry

     The total energy is the sum of the following terms:
     one-electron contribution =    -667.51439645 Ry
     hartree contribution      =     341.79264860 Ry
     xc contribution           =     -35.62816046 Ry
     ewald contribution        =     223.37997034 Ry
     one-center paw contrib.   =     -38.35092257 Ry

     convergence has been achieved in   6 iterations

     negative rho (up, down):  4.840E-04 0.000E+00

     Forces acting on atoms (cartesian axes, Ry/au):

     atom    1 type  1   force =     0.00005842    0.00002853    0.00000478
     atom    2 type  1   force =     0.00000837    0.00008802   -0.00001940
     atom    3 type  1   force =    -0.00001839   -0.00000933    0.00010949
     atom    4 type  1   force =     0.00006803   -0.00007669   -0.00001465
     atom    5 type  1   force =    -0.00001771    0.00002323   -0.00004524
     atom    6 type  1   force =     0.00002292    0.00002640    0.00009493
     atom    7 type  1   force =    -0.00006216    0.00001089   -0.00000672
     atom    8 type  1   force =    -0.00001668   -0.00001608    0.00008567
     atom    9 type  2   force =    -0.00000851    0.00001428   -0.00006184
     atom   10 type  2   force =     0.00004139   -0.00002805   -0.00000562
     atom   11 type  2   force =    -0.00002443   -0.00003726    0.00002246
     atom   12 type  2   force =    -0.00005126   -0.00002394   -0.00016385

     Total force =     0.000316     Total SCF correction =     0.000002
     Energy error            =      1.8E-07 Ry
     Gradient error          =      1.6E-04 Ry/Bohr

     number of scf cycles    =  66
     number of bfgs steps    =  64

     energy             old  =    -176.3208603706 Ry
     energy             new  =    -176.3208605457 Ry

     CASE: energy            _new < energy            _old

     new trust radius        =       0.0008402979 bohr
     new conv_thr            =            1.0E-12 Ry


ATOMIC_POSITIONS (angstrom)
H             4.4746622394        3.7437450226       11.2233957404
H             5.3214019258        4.3027782537       10.0180639521
H             3.2958136315        1.1572294708        8.0870629953
H             3.1441352289        2.8660734758        9.3223091941
H             3.9916164234        3.4251054553        8.1173921958
H             6.3300633478        3.9820253152        8.0921457003
H             3.0085290131        1.8171360872       11.2524484553
H             2.1362145284        3.1862816038       11.2465322541
O             5.2921005034        4.2798778520       11.0187601297
O             3.1741387427        2.8889851215        8.3216030563
O             5.4259703946        4.3700064865        8.2625081869
O             3.0407404717        2.7988626138       11.0774642175



     Writing config-only to output data dir ./output/f-BH.save/
     NEW-OLD atomic charge density approx. for the potential

     negative rho (up, down):  4.841E-04 0.000E+00

     total cpu time spent up to now is     4951.6 secs

     per-process dynamical memory:   210.7 Mb

     Self-consistent Calculation

     iteration #  1     ecut=    60.00 Ry     beta= 0.70
     Davidson diagonalization with overlap
     ethr =  1.00E-06,  avg # of iterations =  2.0

     Threshold (ethr) on eigenvalues was too large:
     Diagonalizing with lowered threshold

     Davidson diagonalization with overlap
     ethr =  4.89E-10,  avg # of iterations =  3.0

     negative rho (up, down):  4.841E-04 0.000E+00

     total cpu time spent up to now is     4963.2 secs

     total energy              =    -176.32086072 Ry
     estimated scf accuracy    <       0.00000025 Ry

     iteration #  2     ecut=    60.00 Ry     beta= 0.70
     Davidson diagonalization with overlap
     ethr =  7.72E-10,  avg # of iterations =  2.0

     negative rho (up, down):  4.841E-04 0.000E+00

     total cpu time spent up to now is     4968.5 secs

     total energy              =    -176.32086075 Ry
     estimated scf accuracy    <       0.00000002 Ry

     iteration #  3     ecut=    60.00 Ry     beta= 0.70
     Davidson diagonalization with overlap
     ethr =  6.28E-11,  avg # of iterations =  2.0

     negative rho (up, down):  4.841E-04 0.000E+00

     total cpu time spent up to now is     4974.1 secs

     total energy              =    -176.32086076 Ry
     estimated scf accuracy    <          3.5E-09 Ry

     iteration #  4     ecut=    60.00 Ry     beta= 0.70
     Davidson diagonalization with overlap
     ethr =  1.10E-11,  avg # of iterations =  2.0

     negative rho (up, down):  4.841E-04 0.000E+00

     total cpu time spent up to now is     4979.5 secs

     total energy              =    -176.32086076 Ry
     estimated scf accuracy    <          2.1E-10 Ry

     iteration #  5     ecut=    60.00 Ry     beta= 0.70
     Davidson diagonalization with overlap
     ethr =  6.64E-13,  avg # of iterations =  2.0

     negative rho (up, down):  4.841E-04 0.000E+00

     total cpu time spent up to now is     4985.0 secs

     total energy              =    -176.32086076 Ry
     estimated scf accuracy    <          1.9E-11 Ry

     iteration #  6     ecut=    60.00 Ry     beta= 0.70
     Davidson diagonalization with overlap
     ethr =  1.00E-13,  avg # of iterations =  2.0

     negative rho (up, down):  4.841E-04 0.000E+00

     total cpu time spent up to now is     4990.2 secs

     total energy              =    -176.32086076 Ry
     estimated scf accuracy    <          1.0E-12 Ry

     iteration #  7     ecut=    60.00 Ry     beta= 0.70
     Davidson diagonalization with overlap
     ethr =  1.00E-13,  avg # of iterations =  1.0

     negative rho (up, down):  4.841E-04 0.000E+00

     total cpu time spent up to now is     4994.4 secs

     End of self-consistent calculation

          k = 0.0000 0.0000 0.0000 ( 18047 PWs)   bands (ev):

   -24.6485 -24.2330 -23.4474 -23.0849 -12.0254 -11.8850 -11.8764 -11.8117
   -10.1082  -9.0501  -7.5375  -7.0158  -6.4279  -6.4094  -6.3240  -6.1816

          k =-0.0153 0.2863 0.0000 ( 18132 PWs)   bands (ev):

   -24.5128 -24.1015 -23.6175 -23.2488 -12.1489 -12.1035 -11.6437 -11.5800
    -9.8771  -8.9658  -7.7370  -7.3442  -6.5426  -6.4419  -6.2118  -6.1005

          k = 0.0307-0.5725 0.0000 ( 18166 PWs)   bands (ev):

   -24.2870 -23.9016 -23.8553 -23.5024 -12.2146 -12.2012 -11.5103 -11.4314
    -9.5689  -8.8353  -7.9980  -7.7427  -6.5962  -6.4433  -6.1204  -6.0268

          k = 0.2575-0.1328 0.0000 ( 18109 PWs)   bands (ev):

   -24.5104 -24.0993 -23.6195 -23.2508 -12.1665 -12.1236 -11.6264 -11.5781
    -9.8729  -8.9664  -7.7324  -7.3381  -6.5383  -6.4420  -6.2065  -6.1012

          k = 0.2421 0.1535 0.0000 ( 18132 PWs)   bands (ev):

   -24.5119 -24.1061 -23.6180 -23.2438 -12.0692 -11.9206 -11.8941 -11.6813
    -9.7744  -8.8650  -7.8984  -7.3998  -6.4055  -6.3155  -6.2432  -6.2244

          k = 0.2882-0.7053 0.0000 ( 18147 PWs)   bands (ev):

   -24.2849 -23.9205 -23.8477 -23.4924 -12.1877 -12.1453 -11.6312 -11.4869
    -9.4050  -8.6206  -8.2678  -7.8556  -6.5091  -6.3952  -6.1176  -6.0569

          k = 0.2728-0.4190 0.0000 ( 18128 PWs)   bands (ev):

   -24.2824 -23.9021 -23.8542 -23.5068 -12.2363 -12.2308 -11.4862 -11.4270
    -9.5421  -8.8018  -8.0173  -7.7908  -6.5773  -6.4495  -6.0869  -6.0331

          k =-0.5150 0.2656 0.0000 ( 18184 PWs)   bands (ev):

   -24.2769 -23.9039 -23.8522 -23.5119 -12.2461 -12.2249 -11.4978 -11.4262
    -9.5660  -8.8406  -7.9857  -7.7195  -6.5884  -6.4448  -6.1103  -6.0253

          k =-0.5303 0.5518 0.0000 ( 18128 PWs)   bands (ev):

   -24.2797 -23.9209 -23.8472 -23.4969 -12.2033 -12.1607 -11.6226 -11.4818
    -9.4044  -8.6277  -8.2605  -7.8437  -6.5066  -6.3944  -6.1106  -6.0572

          k =-0.4843-0.3070 0.0000 ( 18166 PWs)   bands (ev):

   -24.2815 -23.9393 -23.8401 -23.4839 -12.1124 -11.9491 -11.8914 -11.5827
    -9.2205  -8.6893  -8.1719  -8.0362  -6.3633  -6.2989  -6.1915  -6.1744

     highest occupied level (ev):    -6.0253

!    total energy              =    -176.32086076 Ry

     total all-electron energy =      -611.708406 Ry
     estimated scf accuracy    <          2.3E-13 Ry

     The total energy is the sum of the following terms:
     one-electron contribution =    -667.55187169 Ry
     hartree contribution      =     341.81172270 Ry
     xc contribution           =     -35.62842112 Ry
     ewald contribution        =     223.39863261 Ry
     one-center paw contrib.   =     -38.35092325 Ry

     convergence has been achieved in   7 iterations

     negative rho (up, down):  4.841E-04 0.000E+00

     Forces acting on atoms (cartesian axes, Ry/au):

     atom    1 type  1   force =     0.00001707    0.00001438    0.00001203
     atom    2 type  1   force =     0.00002112    0.00008485   -0.00009196
     atom    3 type  1   force =    -0.00003200   -0.00000802    0.00008828
     atom    4 type  1   force =     0.00006847   -0.00008424    0.00005170
     atom    5 type  1   force =     0.00002480    0.00004304   -0.00004031
     atom    6 type  1   force =     0.00005486    0.00001714    0.00009136
     atom    7 type  1   force =    -0.00007789    0.00000345   -0.00001522
     atom    8 type  1   force =    -0.00011585    0.00000496    0.00008715
     atom    9 type  2   force =    -0.00002482    0.00000630    0.00001779
     atom   10 type  2   force =     0.00001157   -0.00006660   -0.00008421
     atom   11 type  2   force =    -0.00005547    0.00000542    0.00002435
     atom   12 type  2   force =     0.00010813   -0.00002068   -0.00014097

     Total force =     0.000363     Total SCF correction =     0.000001
     Energy error            =      2.1E-07 Ry
     Gradient error          =      1.4E-04 Ry/Bohr

     number of scf cycles    =  67
     number of bfgs steps    =  65

     energy             old  =    -176.3208605457 Ry
     energy             new  =    -176.3208607563 Ry

     CASE: energy            _new < energy            _old

     new trust radius        =       0.0010390235 bohr
     new conv_thr            =            1.0E-12 Ry


ATOMIC_POSITIONS (angstrom)
H             4.4749071213        3.7439571553       11.2234405760
H             5.3214711509        4.3030388323       10.0180882316
H             3.2958493240        1.1569841159        8.0874225464
H             3.1441254572        2.8660040472        9.3222466017
H             3.9914505004        3.4249895828        8.1172181142
H             6.3300468020        3.9817654604        8.0923957766
H             3.0084726248        1.8172754369       11.2522884062
H             2.1362326830        3.1864392276       11.2465537041
O             5.2922318555        4.2801683339       11.0187832069
O             3.1740778846        2.8888118521        8.3215507193
O             5.4259472825        4.3697446478        8.2627538189
O             3.0405737647        2.7989280659       11.0769443760



     Writing config-only to output data dir ./output/f-BH.save/
     NEW-OLD atomic charge density approx. for the potential

     negative rho (up, down):  4.842E-04 0.000E+00

     total cpu time spent up to now is     5007.0 secs

     per-process dynamical memory:   210.2 Mb

     Self-consistent Calculation

     iteration #  1     ecut=    60.00 Ry     beta= 0.70
     Davidson diagonalization with overlap
     ethr =  1.00E-06,  avg # of iterations =  2.0

     Threshold (ethr) on eigenvalues was too large:
     Diagonalizing with lowered threshold

     Davidson diagonalization with overlap
     ethr =  5.31E-10,  avg # of iterations =  3.0

     negative rho (up, down):  4.842E-04 0.000E+00

     total cpu time spent up to now is     5018.8 secs

     total energy              =    -176.32086095 Ry
     estimated scf accuracy    <       0.00000025 Ry

     iteration #  2     ecut=    60.00 Ry     beta= 0.70
     Davidson diagonalization with overlap
     ethr =  7.95E-10,  avg # of iterations =  2.0

     negative rho (up, down):  4.842E-04 0.000E+00

     total cpu time spent up to now is     5024.2 secs

     total energy              =    -176.32086098 Ry
     estimated scf accuracy    <       0.00000002 Ry

     iteration #  3     ecut=    60.00 Ry     beta= 0.70
     Davidson diagonalization with overlap
     ethr =  5.23E-11,  avg # of iterations =  2.0

     negative rho (up, down):  4.841E-04 0.000E+00

     total cpu time spent up to now is     5029.6 secs

     total energy              =    -176.32086098 Ry
     estimated scf accuracy    <          2.7E-09 Ry

     iteration #  4     ecut=    60.00 Ry     beta= 0.70
     Davidson diagonalization with overlap
     ethr =  8.50E-12,  avg # of iterations =  2.0

     negative rho (up, down):  4.841E-04 0.000E+00

     total cpu time spent up to now is     5035.1 secs

     total energy              =    -176.32086098 Ry
     estimated scf accuracy    <          2.3E-10 Ry

     iteration #  5     ecut=    60.00 Ry     beta= 0.70
     Davidson diagonalization with overlap
     ethr =  7.13E-13,  avg # of iterations =  2.0

     negative rho (up, down):  4.841E-04 0.000E+00

     total cpu time spent up to now is     5040.5 secs

     total energy              =    -176.32086098 Ry
     estimated scf accuracy    <          9.4E-12 Ry

     iteration #  6     ecut=    60.00 Ry     beta= 0.70
     Davidson diagonalization with overlap
     ethr =  1.00E-13,  avg # of iterations =  2.0

     negative rho (up, down):  4.841E-04 0.000E+00

     total cpu time spent up to now is     5045.3 secs

     End of self-consistent calculation

          k = 0.0000 0.0000 0.0000 ( 18047 PWs)   bands (ev):

   -24.6486 -24.2328 -23.4475 -23.0847 -12.0255 -11.8848 -11.8762 -11.8115
   -10.1080  -9.0494  -7.5379  -7.0155  -6.4276  -6.4091  -6.3236  -6.1813

          k =-0.0153 0.2863 0.0000 ( 18132 PWs)   bands (ev):

   -24.5128 -24.1013 -23.6176 -23.2486 -12.1489 -12.1034 -11.6432 -11.5800
    -9.8769  -8.9652  -7.7375  -7.3439  -6.5422  -6.4417  -6.2115  -6.1001

          k = 0.0307-0.5725 0.0000 ( 18166 PWs)   bands (ev):

   -24.2870 -23.9016 -23.8552 -23.5022 -12.2147 -12.2010 -11.5097 -11.4313
    -9.5685  -8.8348  -7.9986  -7.7425  -6.5958  -6.4432  -6.1201  -6.0264

          k = 0.2575-0.1328 0.0000 ( 18109 PWs)   bands (ev):

   -24.5104 -24.0990 -23.6196 -23.2505 -12.1663 -12.1236 -11.6263 -11.5777
    -9.8727  -8.9657  -7.7327  -7.3378  -6.5380  -6.4417  -6.2062  -6.1010

          k = 0.2421 0.1535 0.0000 ( 18132 PWs)   bands (ev):

   -24.5120 -24.1059 -23.6180 -23.2435 -12.0692 -11.9204 -11.8939 -11.6812
    -9.7742  -8.8644  -7.8986  -7.3994  -6.4052  -6.3152  -6.2429  -6.2241

          k = 0.2882-0.7053 0.0000 ( 18147 PWs)   bands (ev):

   -24.2850 -23.9204 -23.8476 -23.4920 -12.1877 -12.1452 -11.6308 -11.4868
    -9.4047  -8.6201  -8.2682  -7.8553  -6.5087  -6.3951  -6.1173  -6.0565

          k = 0.2728-0.4190 0.0000 ( 18128 PWs)   bands (ev):

   -24.2823 -23.9022 -23.8540 -23.5066 -12.2362 -12.2308 -11.4859 -11.4268
    -9.5418  -8.8013  -8.0177  -7.7905  -6.5770  -6.4493  -6.0866  -6.0328

          k =-0.5150 0.2656 0.0000 ( 18184 PWs)   bands (ev):

   -24.2768 -23.9040 -23.8520 -23.5118 -12.2459 -12.2250 -11.4977 -11.4257
    -9.5659  -8.8400  -7.9859  -7.7192  -6.5882  -6.4444  -6.1100  -6.0252

          k =-0.5303 0.5518 0.0000 ( 18128 PWs)   bands (ev):

   -24.2798 -23.9208 -23.8471 -23.4966 -12.2033 -12.1606 -11.6224 -11.4816
    -9.4043  -8.6272  -8.2607  -7.8433  -6.5064  -6.3940  -6.1103  -6.0570

          k =-0.4843-0.3070 0.0000 ( 18166 PWs)   bands (ev):

   -24.2817 -23.9392 -23.8400 -23.4834 -12.1124 -11.9489 -11.8911 -11.5826
    -9.2202  -8.6896  -8.1714  -8.0357  -6.3630  -6.2987  -6.1913  -6.1740

     highest occupied level (ev):    -6.0252

!    total energy              =    -176.32086098 Ry

     total all-electron energy =      -611.708406 Ry
     estimated scf accuracy    <          9.6E-13 Ry

     The total energy is the sum of the following terms:
     one-electron contribution =    -667.59400657 Ry
     hartree contribution      =     341.83314069 Ry
     xc contribution           =     -35.62861987 Ry
     ewald contribution        =     223.41954947 Ry
     one-center paw contrib.   =     -38.35092471 Ry

     convergence has been achieved in   6 iterations

     negative rho (up, down):  4.841E-04 0.000E+00

     Forces acting on atoms (cartesian axes, Ry/au):

     atom    1 type  1   force =    -0.00002370    0.00000476    0.00000995
     atom    2 type  1   force =     0.00002829    0.00006092   -0.00013250
     atom    3 type  1   force =    -0.00003591    0.00000015    0.00005678
     atom    4 type  1   force =     0.00006031   -0.00007818    0.00010185
     atom    5 type  1   force =     0.00005645    0.00004571   -0.00003216
     atom    6 type  1   force =     0.00006336    0.00000734    0.00008190
     atom    7 type  1   force =    -0.00008330   -0.00001945   -0.00002080
     atom    8 type  1   force =    -0.00016182    0.00002384    0.00005939
     atom    9 type  2   force =    -0.00003016    0.00000654    0.00007601
     atom   10 type  2   force =    -0.00001646   -0.00008768   -0.00014397
     atom   11 type  2   force =    -0.00005959    0.00003768    0.00003493
     atom   12 type  2   force =     0.00020252   -0.00000165   -0.00009137

     Total force =     0.000440     Total SCF correction =     0.000002
     Energy error            =      2.3E-07 Ry
     Gradient error          =      2.0E-04 Ry/Bohr

     number of scf cycles    =  68
     number of bfgs steps    =  66

     energy             old  =    -176.3208607563 Ry
     energy             new  =    -176.3208609844 Ry

     CASE: energy            _new < energy            _old

     new trust radius        =       0.0011429258 bohr
     new conv_thr            =            1.0E-12 Ry


ATOMIC_POSITIONS (angstrom)
H             4.4750208899        3.7440108245       11.2234376641
H             5.3214930522        4.3033910182       10.0181498730
H             3.2958286139        1.1568777955        8.0877882487
H             3.1442352249        2.8658583173        9.3221575629
H             3.9913995090        3.4249434382        8.1170418898
H             6.3301259403        3.9817145166        8.0927842067
H             3.0083927593        1.8173325549       11.2520705519
H             2.1361494160        3.1864290525       11.2465310969
O             5.2922586007        4.2803348062       11.0188661419
O             3.1741140705        2.8886655672        8.3214306442
O             5.4259634002        4.3696227427        8.2630645983
O             3.0404049738        2.7989261243       11.0763635995



     Writing config-only to output data dir ./output/f-BH.save/
     NEW-OLD atomic charge density approx. for the potential

     negative rho (up, down):  4.843E-04 0.000E+00

     total cpu time spent up to now is     5058.0 secs

     per-process dynamical memory:   210.7 Mb

     Self-consistent Calculation

     iteration #  1     ecut=    60.00 Ry     beta= 0.70
     Davidson diagonalization with overlap
     ethr =  1.00E-06,  avg # of iterations =  2.0

     Threshold (ethr) on eigenvalues was too large:
     Diagonalizing with lowered threshold

     Davidson diagonalization with overlap
     ethr =  4.92E-10,  avg # of iterations =  3.1

     negative rho (up, down):  4.843E-04 0.000E+00

     total cpu time spent up to now is     5069.3 secs

     total energy              =    -176.32086118 Ry
     estimated scf accuracy    <       0.00000022 Ry

     iteration #  2     ecut=    60.00 Ry     beta= 0.70
     Davidson diagonalization with overlap
     ethr =  6.84E-10,  avg # of iterations =  2.0

     negative rho (up, down):  4.842E-04 0.000E+00

     total cpu time spent up to now is     5074.6 secs

     total energy              =    -176.32086121 Ry
     estimated scf accuracy    <       0.00000001 Ry

     iteration #  3     ecut=    60.00 Ry     beta= 0.70
     Davidson diagonalization with overlap
     ethr =  3.54E-11,  avg # of iterations =  2.2

     negative rho (up, down):  4.842E-04 0.000E+00

     total cpu time spent up to now is     5080.0 secs

     total energy              =    -176.32086121 Ry
     estimated scf accuracy    <          1.3E-09 Ry

     iteration #  4     ecut=    60.00 Ry     beta= 0.70
     Davidson diagonalization with overlap
     ethr =  3.91E-12,  avg # of iterations =  3.0

     negative rho (up, down):  4.842E-04 0.000E+00

     total cpu time spent up to now is     5085.6 secs

     total energy              =    -176.32086121 Ry
     estimated scf accuracy    <          2.2E-10 Ry

     iteration #  5     ecut=    60.00 Ry     beta= 0.70
     Davidson diagonalization with overlap
     ethr =  6.83E-13,  avg # of iterations =  2.9

     negative rho (up, down):  4.842E-04 0.000E+00

     total cpu time spent up to now is     5091.4 secs

     total energy              =    -176.32086121 Ry
     estimated scf accuracy    <          1.6E-11 Ry

     iteration #  6     ecut=    60.00 Ry     beta= 0.70
     Davidson diagonalization with overlap
     ethr =  1.00E-13,  avg # of iterations =  2.0

     negative rho (up, down):  4.842E-04 0.000E+00

     total cpu time spent up to now is     5096.0 secs

     End of self-consistent calculation

          k = 0.0000 0.0000 0.0000 ( 18047 PWs)   bands (ev):

   -24.6486 -24.2325 -23.4474 -23.0843 -12.0255 -11.8845 -11.8760 -11.8113
   -10.1080  -9.0487  -7.5384  -7.0152  -6.4274  -6.4091  -6.3233  -6.1811

          k =-0.0153 0.2863 0.0000 ( 18132 PWs)   bands (ev):

   -24.5128 -24.1009 -23.6176 -23.2482 -12.1489 -12.1033 -11.6426 -11.5796
    -9.8769  -8.9647  -7.7380  -7.3438  -6.5418  -6.4415  -6.2114  -6.0999

          k = 0.0307-0.5725 0.0000 ( 18166 PWs)   bands (ev):

   -24.2869 -23.9014 -23.8551 -23.5020 -12.2148 -12.2008 -11.5089 -11.4308
    -9.5684  -8.8345  -7.9993  -7.7424  -6.5953  -6.4431  -6.1200  -6.0262

          k = 0.2575-0.1328 0.0000 ( 18109 PWs)   bands (ev):

   -24.5104 -24.0987 -23.6195 -23.2501 -12.1662 -12.1235 -11.6261 -11.5772
    -9.8728  -8.9651  -7.7331  -7.3375  -6.5379  -6.4413  -6.2061  -6.1010

          k = 0.2421 0.1535 0.0000 ( 18132 PWs)   bands (ev):

   -24.5120 -24.1057 -23.6180 -23.2431 -12.0691 -11.9201 -11.8936 -11.6810
    -9.7743  -8.8638  -7.8991  -7.3992  -6.4050  -6.3150  -6.2425  -6.2239

          k = 0.2882-0.7053 0.0000 ( 18147 PWs)   bands (ev):

   -24.2850 -23.9202 -23.8475 -23.4917 -12.1877 -12.1450 -11.6302 -11.4865
    -9.4047  -8.6197  -8.2688  -7.8551  -6.5084  -6.3951  -6.1171  -6.0561

          k = 0.2728-0.4190 0.0000 ( 18128 PWs)   bands (ev):

   -24.2822 -23.9020 -23.8539 -23.5063 -12.2361 -12.2307 -11.4852 -11.4262
    -9.5419  -8.8009  -8.0181  -7.7903  -6.5767  -6.4491  -6.0865  -6.0326

          k =-0.5150 0.2656 0.0000 ( 18184 PWs)   bands (ev):

   -24.2768 -23.9038 -23.8518 -23.5114 -12.2456 -12.2250 -11.4973 -11.4251
    -9.5661  -8.8395  -7.9861  -7.7188  -6.5882  -6.4440  -6.1099  -6.0252

          k =-0.5303 0.5518 0.0000 ( 18128 PWs)   bands (ev):

   -24.2799 -23.9206 -23.8470 -23.4961 -12.2031 -12.1605 -11.6219 -11.4813
    -9.4045  -8.6267  -8.2610  -7.8430  -6.5064  -6.3937  -6.1100  -6.0569

          k =-0.4843-0.3070 0.0000 ( 18166 PWs)   bands (ev):

   -24.2819 -23.9389 -23.8399 -23.4829 -12.1123 -11.9487 -11.8908 -11.5824
    -9.2202  -8.6899  -8.1712  -8.0354  -6.3628  -6.2986  -6.1912  -6.1736

     highest occupied level (ev):    -6.0252

!    total energy              =    -176.32086121 Ry

     total all-electron energy =      -611.708406 Ry
     estimated scf accuracy    <          9.3E-13 Ry

     The total energy is the sum of the following terms:
     one-electron contribution =    -667.63699545 Ry
     hartree contribution      =     341.85487336 Ry
     xc contribution           =     -35.62867675 Ry
     ewald contribution        =     223.44086461 Ry
     one-center paw contrib.   =     -38.35092699 Ry

     convergence has been achieved in   6 iterations

     negative rho (up, down):  4.842E-04 0.000E+00

     Forces acting on atoms (cartesian axes, Ry/au):

     atom    1 type  1   force =    -0.00004986    0.00000929    0.00000088
     atom    2 type  1   force =     0.00002831    0.00001811   -0.00013295
     atom    3 type  1   force =    -0.00002801    0.00000832    0.00002298
     atom    4 type  1   force =     0.00004645   -0.00006309    0.00009403
     atom    5 type  1   force =     0.00006440    0.00002902   -0.00002211
     atom    6 type  1   force =     0.00005107   -0.00000040    0.00006547
     atom    7 type  1   force =    -0.00007436   -0.00002796   -0.00002335
     atom    8 type  1   force =    -0.00013852    0.00003931    0.00001361
     atom    9 type  2   force =    -0.00002719    0.00001236    0.00009536
     atom   10 type  2   force =    -0.00002717   -0.00008175   -0.00014005
     atom   11 type  2   force =    -0.00004637    0.00005584    0.00005092
     atom   12 type  2   force =     0.00020126    0.00000095   -0.00002478

     Total force =     0.000405     Total SCF correction =     0.000001
     Energy error            =      2.3E-07 Ry
     Gradient error          =      2.0E-04 Ry/Bohr

     number of scf cycles    =  69
     number of bfgs steps    =  67

     energy             old  =    -176.3208609844 Ry
     energy             new  =    -176.3208612138 Ry

     CASE: energy            _new < energy            _old

     new trust radius        =       0.0012222242 bohr
     new conv_thr            =            1.0E-12 Ry


ATOMIC_POSITIONS (angstrom)
H             4.4749584364        3.7438972396       11.2233803751
H             5.3214638620        4.3038186499       10.0182752886
H             3.2957474447        1.1569319573        8.0881235852
H             3.1444673624        2.8656216060        9.3220231598
H             3.9914876409        3.4249452663        8.1168717261
H             6.3303027429        3.9818926702        8.0933327098
H             3.0083170399        1.8173134282       11.2517708977
H             2.1359573395        3.1862476812       11.2464172587
O             5.2921585968        4.2803614179       11.0190423572
O             3.1742534185        2.8885426242        8.3212326988
O             5.4260231300        4.3696736281        8.2634767842
O             3.0402494369        2.7988605892       11.0757392366



     Writing config-only to output data dir ./output/f-BH.save/
     NEW-OLD atomic charge density approx. for the potential

     negative rho (up, down):  4.844E-04 0.000E+00

     total cpu time spent up to now is     5108.7 secs

     per-process dynamical memory:   210.2 Mb

     Self-consistent Calculation

     iteration #  1     ecut=    60.00 Ry     beta= 0.70
     Davidson diagonalization with overlap
     ethr =  1.00E-06,  avg # of iterations =  2.0

     Threshold (ethr) on eigenvalues was too large:
     Diagonalizing with lowered threshold

     Davidson diagonalization with overlap
     ethr =  6.47E-10,  avg # of iterations =  3.1

     negative rho (up, down):  4.844E-04 0.000E+00

     total cpu time spent up to now is     5119.8 secs

     total energy              =    -176.32086137 Ry
     estimated scf accuracy    <       0.00000028 Ry

     iteration #  2     ecut=    60.00 Ry     beta= 0.70
     Davidson diagonalization with overlap
     ethr =  8.84E-10,  avg # of iterations =  2.0

     negative rho (up, down):  4.843E-04 0.000E+00

     total cpu time spent up to now is     5125.0 secs

     total energy              =    -176.32086141 Ry
     estimated scf accuracy    <       0.00000002 Ry

     iteration #  3     ecut=    60.00 Ry     beta= 0.70
     Davidson diagonalization with overlap
     ethr =  4.93E-11,  avg # of iterations =  2.2

     negative rho (up, down):  4.843E-04 0.000E+00

     total cpu time spent up to now is     5130.4 secs

     total energy              =    -176.32086141 Ry
     estimated scf accuracy    <          2.1E-09 Ry

     iteration #  4     ecut=    60.00 Ry     beta= 0.70
     Davidson diagonalization with overlap
     ethr =  6.64E-12,  avg # of iterations =  2.2

     negative rho (up, down):  4.843E-04 0.000E+00

     total cpu time spent up to now is     5135.9 secs

     total energy              =    -176.32086141 Ry
     estimated scf accuracy    <          1.9E-10 Ry

     iteration #  5     ecut=    60.00 Ry     beta= 0.70
     Davidson diagonalization with overlap
     ethr =  5.84E-13,  avg # of iterations =  2.0

     negative rho (up, down):  4.843E-04 0.000E+00

     total cpu time spent up to now is     5141.5 secs

     total energy              =    -176.32086141 Ry
     estimated scf accuracy    <          1.2E-11 Ry

     iteration #  6     ecut=    60.00 Ry     beta= 0.70
     Davidson diagonalization with overlap
     ethr =  1.00E-13,  avg # of iterations =  2.0

     negative rho (up, down):  4.843E-04 0.000E+00

     total cpu time spent up to now is     5146.2 secs

     End of self-consistent calculation

          k = 0.0000 0.0000 0.0000 ( 18047 PWs)   bands (ev):

   -24.6486 -24.2322 -23.4473 -23.0838 -12.0255 -11.8843 -11.8756 -11.8110
   -10.1083  -9.0480  -7.5390  -7.0151  -6.4274  -6.4092  -6.3230  -6.1812

          k =-0.0153 0.2863 0.0000 ( 18132 PWs)   bands (ev):

   -24.5127 -24.1006 -23.6176 -23.2478 -12.1490 -12.1032 -11.6418 -11.5790
    -9.8773  -8.9643  -7.7387  -7.3438  -6.5415  -6.4415  -6.2115  -6.1000

          k = 0.0307-0.5725 0.0000 ( 18166 PWs)   bands (ev):

   -24.2866 -23.9010 -23.8551 -23.5018 -12.2150 -12.2007 -11.5078 -11.4298
    -9.5688  -8.8346  -8.0001  -7.7425  -6.5950  -6.4432  -6.1201  -6.0262

          k = 0.2575-0.1328 0.0000 ( 18109 PWs)   bands (ev):

   -24.5104 -24.0984 -23.6194 -23.2497 -12.1661 -12.1235 -11.6256 -11.5766
    -9.8734  -8.9646  -7.7335  -7.3373  -6.5380  -6.4409  -6.2061  -6.1013

          k = 0.2421 0.1535 0.0000 ( 18132 PWs)   bands (ev):

   -24.5120 -24.1053 -23.6178 -23.2426 -12.0690 -11.9198 -11.8932 -11.6807
    -9.7747  -8.8633  -7.8997  -7.3991  -6.4051  -6.3149  -6.2423  -6.2240

          k = 0.2882-0.7053 0.0000 ( 18147 PWs)   bands (ev):

   -24.2849 -23.9197 -23.8475 -23.4913 -12.1877 -12.1448 -11.6293 -11.4858
    -9.4050  -8.6195  -8.2696  -7.8551  -6.5082  -6.3952  -6.1172  -6.0560

          k = 0.2728-0.4190 0.0000 ( 18128 PWs)   bands (ev):

   -24.2821 -23.9016 -23.8539 -23.5060 -12.2361 -12.2307 -11.4843 -11.4253
    -9.5425  -8.8008  -8.0187  -7.7901  -6.5766  -6.4489  -6.0866  -6.0328

          k =-0.5150 0.2656 0.0000 ( 18184 PWs)   bands (ev):

   -24.2768 -23.9034 -23.8518 -23.5110 -12.2456 -12.2250 -11.4967 -11.4243
    -9.5669  -8.8393  -7.9865  -7.7185  -6.5883  -6.4436  -6.1100  -6.0255

          k =-0.5303 0.5518 0.0000 ( 18128 PWs)   bands (ev):

   -24.2799 -23.9201 -23.8470 -23.4957 -12.2030 -12.1604 -11.6211 -11.4808
    -9.4050  -8.6265  -8.2615  -7.8428  -6.5065  -6.3934  -6.1099  -6.0570

          k =-0.4843-0.3070 0.0000 ( 18166 PWs)   bands (ev):

   -24.2820 -23.9385 -23.8399 -23.4825 -12.1122 -11.9483 -11.8903 -11.5821
    -9.2205  -8.6903  -8.1714  -8.0352  -6.3628  -6.2987  -6.1911  -6.1732

     highest occupied level (ev):    -6.0255

!    total energy              =    -176.32086141 Ry

     total all-electron energy =      -611.708406 Ry
     estimated scf accuracy    <          6.9E-13 Ry

     The total energy is the sum of the following terms:
     one-electron contribution =    -667.68007101 Ry
     hartree contribution      =     341.87648761 Ry
     xc contribution           =     -35.62858669 Ry
     ewald contribution        =     223.46223896 Ry
     one-center paw contrib.   =     -38.35093027 Ry

     convergence has been achieved in   6 iterations

     negative rho (up, down):  4.843E-04 0.000E+00

     Forces acting on atoms (cartesian axes, Ry/au):

     atom    1 type  1   force =    -0.00005500    0.00003004   -0.00001015
     atom    2 type  1   force =     0.00002127   -0.00003865   -0.00008151
     atom    3 type  1   force =    -0.00000850    0.00001500   -0.00000674
     atom    4 type  1   force =     0.00002722   -0.00003948    0.00003996
     atom    5 type  1   force =     0.00004534   -0.00000408   -0.00001126
     atom    6 type  1   force =     0.00000955   -0.00000120    0.00004247
     atom    7 type  1   force =    -0.00005687   -0.00003572   -0.00001447
     atom    8 type  1   force =    -0.00004018    0.00004472   -0.00004315
     atom    9 type  2   force =    -0.00001510    0.00002074    0.00005587
     atom   10 type  2   force =    -0.00001718   -0.00004544   -0.00008354
     atom   11 type  2   force =    -0.00000648    0.00004893    0.00006578
     atom   12 type  2   force =     0.00009593    0.00000515    0.00004673

     Total force =     0.000250     Total SCF correction =     0.000002
     Energy error            =      1.9E-07 Ry
     Gradient error          =      9.6E-05 Ry/Bohr

     number of scf cycles    =  70
     number of bfgs steps    =  68

     energy             old  =    -176.3208612138 Ry
     energy             new  =    -176.3208614084 Ry

     CASE: energy            _new < energy            _old

     new trust radius        =       0.0005788937 bohr
     new conv_thr            =            1.0E-12 Ry


ATOMIC_POSITIONS (angstrom)
H             4.4748268924        3.7437893437       11.2233399570
H             5.3214342746        4.3039492426       10.0183495915
H             3.2956949976        1.1570391832        8.0881821320
H             3.1445957017        2.8655094194        9.3219539989
H             3.9915963869        3.4249567499        8.1168206209
H             6.3303973510        3.9820623169        8.0935695893
H             3.0082850696        1.8172568856       11.2516482771
H             2.1358547977        3.1861222151       11.2463038617
O             5.2920561477        4.2802960850       11.0191475918
O             3.1743434694        2.8885194382        8.3211196049
O             5.4260705034        4.3697909024        8.2636671626
O             3.0402308587        2.7988149761       11.0755836901



     Writing config-only to output data dir ./output/f-BH.save/
     NEW-OLD atomic charge density approx. for the potential

     negative rho (up, down):  4.844E-04 0.000E+00

     total cpu time spent up to now is     5158.9 secs

     per-process dynamical memory:   210.7 Mb

     Self-consistent Calculation

     iteration #  1     ecut=    60.00 Ry     beta= 0.70
     Davidson diagonalization with overlap
     ethr =  1.00E-06,  avg # of iterations =  2.0

     Threshold (ethr) on eigenvalues was too large:
     Diagonalizing with lowered threshold

     Davidson diagonalization with overlap
     ethr =  1.12E-10,  avg # of iterations =  4.0

     negative rho (up, down):  4.844E-04 0.000E+00

     total cpu time spent up to now is     5170.5 secs

     total energy              =    -176.32086147 Ry
     estimated scf accuracy    <       0.00000006 Ry

     iteration #  2     ecut=    60.00 Ry     beta= 0.70
     Davidson diagonalization with overlap
     ethr =  1.94E-10,  avg # of iterations =  2.0

     negative rho (up, down):  4.844E-04 0.000E+00

     total cpu time spent up to now is     5175.8 secs

     total energy              =    -176.32086147 Ry
     estimated scf accuracy    <          4.9E-09 Ry

     iteration #  3     ecut=    60.00 Ry     beta= 0.70
     Davidson diagonalization with overlap
     ethr =  1.54E-11,  avg # of iterations =  2.0

     negative rho (up, down):  4.844E-04 0.000E+00

     total cpu time spent up to now is     5181.5 secs

     total energy              =    -176.32086147 Ry
     estimated scf accuracy    <          1.0E-09 Ry

     iteration #  4     ecut=    60.00 Ry     beta= 0.70
     Davidson diagonalization with overlap
     ethr =  3.11E-12,  avg # of iterations =  2.0

     negative rho (up, down):  4.844E-04 0.000E+00

     total cpu time spent up to now is     5186.7 secs

     total energy              =    -176.32086147 Ry
     estimated scf accuracy    <          3.7E-11 Ry

     iteration #  5     ecut=    60.00 Ry     beta= 0.70
     Davidson diagonalization with overlap
     ethr =  1.16E-13,  avg # of iterations =  2.6

     negative rho (up, down):  4.844E-04 0.000E+00

     total cpu time spent up to now is     5192.5 secs

     total energy              =    -176.32086147 Ry
     estimated scf accuracy    <          1.1E-11 Ry

     iteration #  6     ecut=    60.00 Ry     beta= 0.70
     Davidson diagonalization with overlap
     ethr =  1.00E-13,  avg # of iterations =  1.1

     negative rho (up, down):  4.844E-04 0.000E+00

     total cpu time spent up to now is     5196.8 secs

     total energy              =    -176.32086147 Ry
     estimated scf accuracy    <          1.4E-12 Ry

     iteration #  7     ecut=    60.00 Ry     beta= 0.70
     Davidson diagonalization with overlap
     ethr =  1.00E-13,  avg # of iterations =  1.0

     negative rho (up, down):  4.844E-04 0.000E+00

     total cpu time spent up to now is     5201.0 secs

     End of self-consistent calculation

          k = 0.0000 0.0000 0.0000 ( 18047 PWs)   bands (ev):

   -24.6486 -24.2321 -23.4472 -23.0836 -12.0254 -11.8843 -11.8755 -11.8109
   -10.1086  -9.0479  -7.5392  -7.0151  -6.4275  -6.4094  -6.3230  -6.1813

          k =-0.0153 0.2863 0.0000 ( 18132 PWs)   bands (ev):

   -24.5127 -24.1005 -23.6175 -23.2477 -12.1490 -12.1032 -11.6415 -11.5786
    -9.8776  -8.9643  -7.7390  -7.3439  -6.5414  -6.4417  -6.2118  -6.1002

          k = 0.0307-0.5725 0.0000 ( 18166 PWs)   bands (ev):

   -24.2865 -23.9008 -23.8552 -23.5018 -12.2150 -12.2008 -11.5073 -11.4293
    -9.5691  -8.8348  -8.0004  -7.7427  -6.5949  -6.4433  -6.1204  -6.0264

          k = 0.2575-0.1328 0.0000 ( 18109 PWs)   bands (ev):

   -24.5104 -24.0983 -23.6193 -23.2495 -12.1661 -12.1236 -11.6252 -11.5764
    -9.8737  -8.9646  -7.7337  -7.3374  -6.5381  -6.4408  -6.2062  -6.1015

          k = 0.2421 0.1535 0.0000 ( 18132 PWs)   bands (ev):

   -24.5120 -24.1053 -23.6177 -23.2424 -12.0690 -11.9196 -11.8930 -11.6806
    -9.7750  -8.8632  -7.8999  -7.3993  -6.4053  -6.3150  -6.2423  -6.2241

          k = 0.2882-0.7053 0.0000 ( 18147 PWs)   bands (ev):

   -24.2848 -23.9195 -23.8476 -23.4913 -12.1877 -12.1448 -11.6289 -11.4855
    -9.4053  -8.6196  -8.2699  -7.8552  -6.5082  -6.3953  -6.1174  -6.0561

          k = 0.2728-0.4190 0.0000 ( 18128 PWs)   bands (ev):

   -24.2821 -23.9014 -23.8539 -23.5059 -12.2361 -12.2308 -11.4839 -11.4249
    -9.5429  -8.8010  -8.0190  -7.7902  -6.5767  -6.4489  -6.0868  -6.0329

          k =-0.5150 0.2656 0.0000 ( 18184 PWs)   bands (ev):

   -24.2768 -23.9031 -23.8519 -23.5108 -12.2456 -12.2251 -11.4963 -11.4239
    -9.5674  -8.8394  -7.9867  -7.7185  -6.5884  -6.4435  -6.1101  -6.0258

          k =-0.5303 0.5518 0.0000 ( 18128 PWs)   bands (ev):

   -24.2799 -23.9199 -23.8470 -23.4955 -12.2030 -12.1605 -11.6208 -11.4805
    -9.4054  -8.6266  -8.2617  -7.8429  -6.5066  -6.3934  -6.1100  -6.0572

          k =-0.4843-0.3070 0.0000 ( 18166 PWs)   bands (ev):

   -24.2819 -23.9383 -23.8399 -23.4823 -12.1121 -11.9482 -11.8900 -11.5819
    -9.2208  -8.6905  -8.1716  -8.0353  -6.3629  -6.2989  -6.1912  -6.1732

     highest occupied level (ev):    -6.0258

!    total energy              =    -176.32086147 Ry

     total all-electron energy =      -611.708406 Ry
     estimated scf accuracy    <          6.5E-13 Ry

     The total energy is the sum of the following terms:
     one-electron contribution =    -667.68968546 Ry
     hartree contribution      =     341.88119963 Ry
     xc contribution           =     -35.62846001 Ry
     ewald contribution        =     223.46701608 Ry
     one-center paw contrib.   =     -38.35093172 Ry

     convergence has been achieved in   7 iterations

     negative rho (up, down):  4.844E-04 0.000E+00

     Forces acting on atoms (cartesian axes, Ry/au):

     atom    1 type  1   force =    -0.00004026    0.00004401   -0.00001245
     atom    2 type  1   force =     0.00001451   -0.00005626   -0.00003818
     atom    3 type  1   force =     0.00000332    0.00001229   -0.00000850
     atom    4 type  1   force =     0.00002044   -0.00002968   -0.00001229
     atom    5 type  1   force =     0.00002205   -0.00002124   -0.00000775
     atom    6 type  1   force =    -0.00001253    0.00000270    0.00003171
     atom    7 type  1   force =    -0.00004568   -0.00002301   -0.00000747
     atom    8 type  1   force =     0.00002497    0.00003924   -0.00005687
     atom    9 type  2   force =    -0.00000944    0.00002202    0.00000890
     atom   10 type  2   force =     0.00000135   -0.00001767   -0.00002361
     atom   11 type  2   force =     0.00001272    0.00003402    0.00006584
     atom   12 type  2   force =     0.00000854   -0.00000642    0.00006066

     Total force =     0.000177     Total SCF correction =     0.000001
     Energy error            =      6.6E-08 Ry
     Gradient error          =      6.6E-05 Ry/Bohr

     number of scf cycles    =  71
     number of bfgs steps    =  69

     energy             old  =    -176.3208614084 Ry
     energy             new  =    -176.3208614748 Ry

     CASE: energy            _new < energy            _old

     new trust radius        =       0.0005234829 bohr
     new conv_thr            =            1.0E-12 Ry


ATOMIC_POSITIONS (angstrom)
H             4.4746621274        3.7437042875       11.2232924535
H             5.3214115701        4.3039760625       10.0183995379
H             3.2956685594        1.1571740847        8.0881943234
H             3.1447128307        2.8654120968        9.3218891228
H             3.9917198082        3.4249722248        8.1167982484
H             6.3304740812        3.9822373256        8.0937701432
H             3.0082332016        1.8171738538       11.2515463879
H             2.1357739845        3.1860208269       11.2461617861
O             5.2919442679        4.2802124324       11.0192246708
O             3.1744331066        2.8885256781        8.3210248528
O             5.4261263470        4.3699451544        8.2638590018
O             3.0402265662        2.7987527306       11.0755255494



     Writing config-only to output data dir ./output/f-BH.save/
     NEW-OLD atomic charge density approx. for the potential

     negative rho (up, down):  4.844E-04 0.000E+00

     total cpu time spent up to now is     5213.6 secs

     per-process dynamical memory:   210.2 Mb

     Self-consistent Calculation

     iteration #  1     ecut=    60.00 Ry     beta= 0.70
     Davidson diagonalization with overlap
     ethr =  1.00E-06,  avg # of iterations =  2.0

     Threshold (ethr) on eigenvalues was too large:
     Diagonalizing with lowered threshold

     Davidson diagonalization with overlap
     ethr =  1.02E-10,  avg # of iterations =  4.0

     negative rho (up, down):  4.844E-04 0.000E+00

     total cpu time spent up to now is     5225.5 secs

     total energy              =    -176.32086152 Ry
     estimated scf accuracy    <       0.00000006 Ry

     iteration #  2     ecut=    60.00 Ry     beta= 0.70
     Davidson diagonalization with overlap
     ethr =  1.81E-10,  avg # of iterations =  2.0

     negative rho (up, down):  4.844E-04 0.000E+00

     total cpu time spent up to now is     5230.8 secs

     total energy              =    -176.32086153 Ry
     estimated scf accuracy    <          4.1E-09 Ry

     iteration #  3     ecut=    60.00 Ry     beta= 0.70
     Davidson diagonalization with overlap
     ethr =  1.27E-11,  avg # of iterations =  2.0

     negative rho (up, down):  4.844E-04 0.000E+00

     total cpu time spent up to now is     5236.4 secs

     total energy              =    -176.32086153 Ry
     estimated scf accuracy    <          8.1E-10 Ry

     iteration #  4     ecut=    60.00 Ry     beta= 0.70
     Davidson diagonalization with overlap
     ethr =  2.52E-12,  avg # of iterations =  2.0

     negative rho (up, down):  4.844E-04 0.000E+00

     total cpu time spent up to now is     5241.8 secs

     total energy              =    -176.32086153 Ry
     estimated scf accuracy    <          3.9E-11 Ry

     iteration #  5     ecut=    60.00 Ry     beta= 0.70
     Davidson diagonalization with overlap
     ethr =  1.21E-13,  avg # of iterations =  2.1

     negative rho (up, down):  4.844E-04 0.000E+00

     total cpu time spent up to now is     5247.3 secs

     total energy              =    -176.32086153 Ry
     estimated scf accuracy    <          6.7E-12 Ry

     iteration #  6     ecut=    60.00 Ry     beta= 0.70
     Davidson diagonalization with overlap
     ethr =  1.00E-13,  avg # of iterations =  1.0

     negative rho (up, down):  4.844E-04 0.000E+00

     total cpu time spent up to now is     5251.5 secs

     End of self-consistent calculation

          k = 0.0000 0.0000 0.0000 ( 18047 PWs)   bands (ev):

   -24.6486 -24.2321 -23.4471 -23.0835 -12.0255 -11.8844 -11.8754 -11.8109
   -10.1088  -9.0478  -7.5393  -7.0152  -6.4277  -6.4096  -6.3231  -6.1814

          k =-0.0153 0.2863 0.0000 ( 18132 PWs)   bands (ev):

   -24.5127 -24.1004 -23.6175 -23.2477 -12.1491 -12.1033 -11.6414 -11.5784
    -9.8779  -8.9643  -7.7391  -7.3441  -6.5415  -6.4418  -6.2120  -6.1004

          k = 0.0307-0.5725 0.0000 ( 18166 PWs)   bands (ev):

   -24.2864 -23.9006 -23.8553 -23.5019 -12.2150 -12.2010 -11.5071 -11.4289
    -9.5694  -8.8349  -8.0006  -7.7428  -6.5950  -6.4434  -6.1207  -6.0266

          k = 0.2575-0.1328 0.0000 ( 18109 PWs)   bands (ev):

   -24.5104 -24.0983 -23.6192 -23.2494 -12.1663 -12.1237 -11.6250 -11.5763
    -9.8741  -8.9647  -7.7339  -7.3376  -6.5382  -6.4408  -6.2064  -6.1017

          k = 0.2421 0.1535 0.0000 ( 18132 PWs)   bands (ev):

   -24.5120 -24.1052 -23.6177 -23.2424 -12.0690 -11.9197 -11.8928 -11.6806
    -9.7753  -8.8632  -7.9001  -7.3994  -6.4055  -6.3151  -6.2424  -6.2243

          k = 0.2882-0.7053 0.0000 ( 18147 PWs)   bands (ev):

   -24.2848 -23.9194 -23.8476 -23.4913 -12.1878 -12.1449 -11.6287 -11.4852
    -9.4056  -8.6198  -8.2701  -7.8554  -6.5083  -6.3954  -6.1176  -6.0563

          k = 0.2728-0.4190 0.0000 ( 18128 PWs)   bands (ev):

   -24.2821 -23.9013 -23.8540 -23.5059 -12.2362 -12.2310 -11.4836 -11.4246
    -9.5432  -8.8012  -8.0192  -7.7904  -6.5767  -6.4489  -6.0870  -6.0332

          k =-0.5150 0.2656 0.0000 ( 18184 PWs)   bands (ev):

   -24.2769 -23.9030 -23.8520 -23.5106 -12.2458 -12.2252 -11.4960 -11.4236
    -9.5678  -8.8397  -7.9869  -7.7186  -6.5885  -6.4435  -6.1103  -6.0259

          k =-0.5303 0.5518 0.0000 ( 18128 PWs)   bands (ev):

   -24.2800 -23.9198 -23.8471 -23.4954 -12.2031 -12.1605 -11.6205 -11.4803
    -9.4058  -8.6268  -8.2620  -7.8430  -6.5067  -6.3934  -6.1102  -6.0573

          k =-0.4843-0.3070 0.0000 ( 18166 PWs)   bands (ev):

   -24.2819 -23.9382 -23.8400 -23.4823 -12.1121 -11.9481 -11.8899 -11.5818
    -9.2210  -8.6907  -8.1719  -8.0354  -6.3630  -6.2991  -6.1913  -6.1733

     highest occupied level (ev):    -6.0259

!    total energy              =    -176.32086153 Ry

     total all-electron energy =      -611.708406 Ry
     estimated scf accuracy    <          3.6E-13 Ry

     The total energy is the sum of the following terms:
     one-electron contribution =    -667.69659204 Ry
     hartree contribution      =     341.88452006 Ry
     xc contribution           =     -35.62835737 Ry
     ewald contribution        =     223.47050055 Ry
     one-center paw contrib.   =     -38.35093272 Ry

     convergence has been achieved in   6 iterations

     negative rho (up, down):  4.844E-04 0.000E+00

     Forces acting on atoms (cartesian axes, Ry/au):

     atom    1 type  1   force =    -0.00002077    0.00005182   -0.00001006
     atom    2 type  1   force =     0.00000712   -0.00005855    0.00000132
     atom    3 type  1   force =     0.00001210    0.00000773   -0.00000182
     atom    4 type  1   force =     0.00001622   -0.00002205   -0.00004874
     atom    5 type  1   force =    -0.00000000   -0.00003133   -0.00000536
     atom    6 type  1   force =    -0.00002897    0.00000819    0.00002270
     atom    7 type  1   force =    -0.00003772   -0.00001244    0.00000129
     atom    8 type  1   force =     0.00007265    0.00002871   -0.00005546
     atom    9 type  2   force =    -0.00000554    0.00002032   -0.00003704
     atom   10 type  2   force =     0.00001857    0.00000485    0.00002185
     atom   11 type  2   force =     0.00002829    0.00001277    0.00005610
     atom   12 type  2   force =    -0.00006196   -0.00001002    0.00005521

     Total force =     0.000192     Total SCF correction =     0.000001
     Energy error            =      5.6E-08 Ry
     Gradient error          =      7.3E-05 Ry/Bohr

     number of scf cycles    =  72
     number of bfgs steps    =  70

     energy             old  =    -176.3208614748 Ry
     energy             new  =    -176.3208615306 Ry

     CASE: energy            _new < energy            _old

     new trust radius        =       0.0004881901 bohr
     new conv_thr            =            1.0E-12 Ry


ATOMIC_POSITIONS (angstrom)
H             4.4745308959        3.7437457071       11.2232574937
H             5.3214286456        4.3039573834       10.0184092446
H             3.2956505493        1.1572488547        8.0882272964
H             3.1448166465        2.8652865881        9.3218201810
H             3.9918045995        3.4249196002        8.1167501522
H             6.3305019343        3.9823216270        8.0939774537
H             3.0081378708        1.8171222379       11.2514541528
H             2.1357538442        3.1860348388       11.2459996132
O             5.2918670777        4.2802213637       11.0192601091
O             3.1744914336        2.8884757914        8.3209297512
O             5.4261640895        4.3700411429        8.2640958578
O             3.0402388638        2.7987316228       11.0755047721



     Writing config-only to output data dir ./output/f-BH.save/
     NEW-OLD atomic charge density approx. for the potential

     negative rho (up, down):  4.845E-04 0.000E+00

     total cpu time spent up to now is     5264.1 secs

     per-process dynamical memory:   210.7 Mb

     Self-consistent Calculation

     iteration #  1     ecut=    60.00 Ry     beta= 0.70
     Davidson diagonalization with overlap
     ethr =  1.00E-06,  avg # of iterations =  2.0

     Threshold (ethr) on eigenvalues was too large:
     Diagonalizing with lowered threshold

     Davidson diagonalization with overlap
     ethr =  8.44E-11,  avg # of iterations =  3.6

     negative rho (up, down):  4.844E-04 0.000E+00

     total cpu time spent up to now is     5275.3 secs

     total energy              =    -176.32086159 Ry
     estimated scf accuracy    <       0.00000004 Ry

     iteration #  2     ecut=    60.00 Ry     beta= 0.70
     Davidson diagonalization with overlap
     ethr =  1.35E-10,  avg # of iterations =  2.0

     negative rho (up, down):  4.844E-04 0.000E+00

     total cpu time spent up to now is     5280.7 secs

     total energy              =    -176.32086159 Ry
     estimated scf accuracy    <          3.0E-09 Ry

     iteration #  3     ecut=    60.00 Ry     beta= 0.70
     Davidson diagonalization with overlap
     ethr =  9.31E-12,  avg # of iterations =  2.0

     negative rho (up, down):  4.844E-04 0.000E+00

     total cpu time spent up to now is     5286.2 secs

     total energy              =    -176.32086159 Ry
     estimated scf accuracy    <          5.2E-10 Ry

     iteration #  4     ecut=    60.00 Ry     beta= 0.70
     Davidson diagonalization with overlap
     ethr =  1.64E-12,  avg # of iterations =  2.0

     negative rho (up, down):  4.844E-04 0.000E+00

     total cpu time spent up to now is     5291.5 secs

     total energy              =    -176.32086160 Ry
     estimated scf accuracy    <          2.9E-11 Ry

     iteration #  5     ecut=    60.00 Ry     beta= 0.70
     Davidson diagonalization with overlap
     ethr =  1.00E-13,  avg # of iterations =  2.0

     negative rho (up, down):  4.844E-04 0.000E+00

     total cpu time spent up to now is     5296.9 secs

     total energy              =    -176.32086160 Ry
     estimated scf accuracy    <          3.6E-12 Ry

     iteration #  6     ecut=    60.00 Ry     beta= 0.70
     Davidson diagonalization with overlap
     ethr =  1.00E-13,  avg # of iterations =  1.0

     negative rho (up, down):  4.844E-04 0.000E+00

     total cpu time spent up to now is     5301.0 secs

     End of self-consistent calculation

          k = 0.0000 0.0000 0.0000 ( 18047 PWs)   bands (ev):

   -24.6487 -24.2321 -23.4471 -23.0834 -12.0255 -11.8845 -11.8753 -11.8108
   -10.1091  -9.0478  -7.5395  -7.0153  -6.4278  -6.4097  -6.3231  -6.1815

          k =-0.0153 0.2863 0.0000 ( 18132 PWs)   bands (ev):

   -24.5127 -24.1004 -23.6175 -23.2476 -12.1491 -12.1033 -11.6414 -11.5782
    -9.8782  -8.9643  -7.7393  -7.3442  -6.5415  -6.4419  -6.2122  -6.1006

          k = 0.0307-0.5725 0.0000 ( 18166 PWs)   bands (ev):

   -24.2864 -23.9006 -23.8553 -23.5019 -12.2150 -12.2011 -11.5070 -11.4286
    -9.5697  -8.8350  -8.0008  -7.7430  -6.5950  -6.4434  -6.1209  -6.0269

          k = 0.2575-0.1328 0.0000 ( 18109 PWs)   bands (ev):

   -24.5105 -24.0983 -23.6192 -23.2493 -12.1664 -12.1238 -11.6247 -11.5762
    -9.8743  -8.9647  -7.7341  -7.3377  -6.5382  -6.4408  -6.2065  -6.1018

          k = 0.2421 0.1535 0.0000 ( 18132 PWs)   bands (ev):

   -24.5121 -24.1052 -23.6177 -23.2423 -12.0691 -11.9197 -11.8927 -11.6805
    -9.7755  -8.8633  -7.9003  -7.3995  -6.4056  -6.3152  -6.2424  -6.2244

          k = 0.2882-0.7053 0.0000 ( 18147 PWs)   bands (ev):

   -24.2848 -23.9194 -23.8477 -23.4912 -12.1878 -12.1449 -11.6285 -11.4851
    -9.4059  -8.6199  -8.2704  -7.8555  -6.5083  -6.3955  -6.1177  -6.0565

          k = 0.2728-0.4190 0.0000 ( 18128 PWs)   bands (ev):

   -24.2821 -23.9012 -23.8540 -23.5058 -12.2362 -12.2312 -11.4834 -11.4243
    -9.5435  -8.8013  -8.0194  -7.7905  -6.5767  -6.4489  -6.0872  -6.0333

          k =-0.5150 0.2656 0.0000 ( 18184 PWs)   bands (ev):

   -24.2770 -23.9029 -23.8520 -23.5105 -12.2459 -12.2254 -11.4956 -11.4234
    -9.5681  -8.8399  -7.9871  -7.7187  -6.5885  -6.4435  -6.1104  -6.0261

          k =-0.5303 0.5518 0.0000 ( 18128 PWs)   bands (ev):

   -24.2800 -23.9197 -23.8472 -23.4953 -12.2033 -12.1606 -11.6202 -11.4802
    -9.4061  -8.6269  -8.2622  -7.8431  -6.5068  -6.3934  -6.1102  -6.0574

          k =-0.4843-0.3070 0.0000 ( 18166 PWs)   bands (ev):

   -24.2820 -23.9381 -23.8400 -23.4822 -12.1122 -11.9482 -11.8897 -11.5817
    -9.2212  -8.6910  -8.1721  -8.0354  -6.3631  -6.2992  -6.1913  -6.1733

     highest occupied level (ev):    -6.0261

!    total energy              =    -176.32086160 Ry

     total all-electron energy =      -611.708406 Ry
     estimated scf accuracy    <          1.4E-13 Ry

     The total energy is the sum of the following terms:
     one-electron contribution =    -667.70645138 Ry
     hartree contribution      =     341.88934706 Ry
     xc contribution           =     -35.62829026 Ry
     ewald contribution        =     223.47546659 Ry
     one-center paw contrib.   =     -38.35093361 Ry

     convergence has been achieved in   6 iterations

     negative rho (up, down):  4.844E-04 0.000E+00

     Forces acting on atoms (cartesian axes, Ry/au):

     atom    1 type  1   force =    -0.00000180    0.00005020   -0.00000558
     atom    2 type  1   force =    -0.00000211   -0.00004895    0.00003108
     atom    3 type  1   force =     0.00001792   -0.00000110    0.00000744
     atom    4 type  1   force =     0.00001332   -0.00001436   -0.00007515
     atom    5 type  1   force =    -0.00001648   -0.00003533   -0.00000185
     atom    6 type  1   force =    -0.00003266    0.00001186    0.00001201
     atom    7 type  1   force =    -0.00002791    0.00000539    0.00000667
     atom    8 type  1   force =     0.00009381    0.00001763   -0.00004293
     atom    9 type  2   force =    -0.00000597    0.00001485   -0.00006844
     atom   10 type  2   force =     0.00003200    0.00001982    0.00006021
     atom   11 type  2   force =     0.00003430   -0.00000231    0.00003835
     atom   12 type  2   force =    -0.00010442   -0.00001769    0.00003820

     Total force =     0.000229     Total SCF correction =     0.000001
     Energy error            =      6.4E-08 Ry
     Gradient error          =      1.0E-04 Ry/Bohr

     number of scf cycles    =  73
     number of bfgs steps    =  71

     energy             old  =    -176.3208615306 Ry
     energy             new  =    -176.3208615950 Ry

     CASE: energy            _new < energy            _old

     new trust radius        =       0.0005370091 bohr
     new conv_thr            =            1.0E-12 Ry


ATOMIC_POSITIONS (angstrom)
H             4.4744455729        3.7438884862       11.2232272670
H             5.3214740733        4.3038940878       10.0183724874
H             3.2956653269        1.1572749135        8.0883143316
H             3.1449134681        2.8651474854        9.3217482348
H             3.9918498650        3.4248381216        8.1166863245
H             6.3304986168        3.9823343690        8.0941962282
H             3.0079855984        1.8170855077       11.2513628437
H             2.1357771156        3.1861347229       11.2458411485
O             5.2918217769        4.2803029808       11.0192409498
O             3.1745333123        2.8884003011        8.3208523541
O             5.4261951924        4.3700906257        8.2643739556
O             3.0402265321        2.7987151564       11.0754699527



     Writing config-only to output data dir ./output/f-BH.save/
     NEW-OLD atomic charge density approx. for the potential

     negative rho (up, down):  4.845E-04 0.000E+00

     total cpu time spent up to now is     5313.7 secs

     per-process dynamical memory:   210.2 Mb

     Self-consistent Calculation

     iteration #  1     ecut=    60.00 Ry     beta= 0.70
     Davidson diagonalization with overlap
     ethr =  1.00E-06,  avg # of iterations =  2.0

     Threshold (ethr) on eigenvalues was too large:
     Diagonalizing with lowered threshold

     Davidson diagonalization with overlap
     ethr =  1.05E-10,  avg # of iterations =  3.4

     negative rho (up, down):  4.845E-04 0.000E+00

     total cpu time spent up to now is     5324.8 secs

     total energy              =    -176.32086166 Ry
     estimated scf accuracy    <       0.00000005 Ry

     iteration #  2     ecut=    60.00 Ry     beta= 0.70
     Davidson diagonalization with overlap
     ethr =  1.49E-10,  avg # of iterations =  2.0

     negative rho (up, down):  4.845E-04 0.000E+00

     total cpu time spent up to now is     5330.2 secs

     total energy              =    -176.32086166 Ry
     estimated scf accuracy    <          3.3E-09 Ry

     iteration #  3     ecut=    60.00 Ry     beta= 0.70
     Davidson diagonalization with overlap
     ethr =  1.03E-11,  avg # of iterations =  2.0

     negative rho (up, down):  4.845E-04 0.000E+00

     total cpu time spent up to now is     5335.6 secs

     total energy              =    -176.32086166 Ry
     estimated scf accuracy    <          5.6E-10 Ry

     iteration #  4     ecut=    60.00 Ry     beta= 0.70
     Davidson diagonalization with overlap
     ethr =  1.76E-12,  avg # of iterations =  2.1

     negative rho (up, down):  4.845E-04 0.000E+00

     total cpu time spent up to now is     5341.4 secs

     total energy              =    -176.32086166 Ry
     estimated scf accuracy    <          4.4E-11 Ry

     iteration #  5     ecut=    60.00 Ry     beta= 0.70
     Davidson diagonalization with overlap
     ethr =  1.36E-13,  avg # of iterations =  2.4

     negative rho (up, down):  4.845E-04 0.000E+00

     total cpu time spent up to now is     5346.8 secs

     total energy              =    -176.32086166 Ry
     estimated scf accuracy    <          4.8E-12 Ry

     iteration #  6     ecut=    60.00 Ry     beta= 0.70
     Davidson diagonalization with overlap
     ethr =  1.00E-13,  avg # of iterations =  1.3

     negative rho (up, down):  4.845E-04 0.000E+00

     total cpu time spent up to now is     5351.2 secs

     End of self-consistent calculation

          k = 0.0000 0.0000 0.0000 ( 18047 PWs)   bands (ev):

   -24.6488 -24.2321 -23.4472 -23.0834 -12.0257 -11.8846 -11.8753 -11.8108
   -10.1091  -9.0476  -7.5397  -7.0153  -6.4279  -6.4098  -6.3232  -6.1816

          k =-0.0153 0.2863 0.0000 ( 18132 PWs)   bands (ev):

   -24.5128 -24.1004 -23.6176 -23.2476 -12.1492 -12.1034 -11.6414 -11.5781
    -9.8783  -8.9642  -7.7395  -7.3442  -6.5414  -6.4419  -6.2123  -6.1007

          k = 0.0307-0.5725 0.0000 ( 18166 PWs)   bands (ev):

   -24.2864 -23.9007 -23.8553 -23.5020 -12.2150 -12.2012 -11.5070 -11.4285
    -9.5697  -8.8348  -8.0011  -7.7431  -6.5950  -6.4433  -6.1211  -6.0271

          k = 0.2575-0.1328 0.0000 ( 18109 PWs)   bands (ev):

   -24.5106 -24.0983 -23.6193 -23.2493 -12.1666 -12.1240 -11.6245 -11.5761
    -9.8745  -8.9647  -7.7344  -7.3378  -6.5382  -6.4407  -6.2066  -6.1019

          k = 0.2421 0.1535 0.0000 ( 18132 PWs)   bands (ev):

   -24.5122 -24.1052 -23.6178 -23.2423 -12.0693 -11.9198 -11.8926 -11.6805
    -9.7756  -8.8632  -7.9005  -7.3995  -6.4056  -6.3152  -6.2424  -6.2244

          k = 0.2882-0.7053 0.0000 ( 18147 PWs)   bands (ev):

   -24.2849 -23.9194 -23.8477 -23.4912 -12.1879 -12.1450 -11.6285 -11.4851
    -9.4060  -8.6198  -8.2706  -7.8556  -6.5083  -6.3955  -6.1178  -6.0566

          k = 0.2728-0.4190 0.0000 ( 18128 PWs)   bands (ev):

   -24.2822 -23.9013 -23.8541 -23.5058 -12.2362 -12.2315 -11.4833 -11.4242
    -9.5436  -8.8013  -8.0197  -7.7906  -6.5767  -6.4489  -6.0873  -6.0334

          k =-0.5150 0.2656 0.0000 ( 18184 PWs)   bands (ev):

   -24.2772 -23.9029 -23.8521 -23.5104 -12.2461 -12.2256 -11.4954 -11.4233
    -9.5683  -8.8400  -7.9874  -7.7188  -6.5884  -6.4435  -6.1105  -6.0261

          k =-0.5303 0.5518 0.0000 ( 18128 PWs)   bands (ev):

   -24.2802 -23.9197 -23.8472 -23.4953 -12.2035 -12.1608 -11.6200 -11.4801
    -9.4062  -8.6270  -8.2624  -7.8432  -6.5068  -6.3934  -6.1103  -6.0575

          k =-0.4843-0.3070 0.0000 ( 18166 PWs)   bands (ev):

   -24.2821 -23.9381 -23.8401 -23.4822 -12.1124 -11.9483 -11.8896 -11.5817
    -9.2213  -8.6912  -8.1721  -8.0354  -6.3631  -6.2992  -6.1914  -6.1734

     highest occupied level (ev):    -6.0261

!    total energy              =    -176.32086166 Ry

     total all-electron energy =      -611.708407 Ry
     estimated scf accuracy    <          3.1E-13 Ry

     The total energy is the sum of the following terms:
     one-electron contribution =    -667.72409177 Ry
     hartree contribution      =     341.89813063 Ry
     xc contribution           =     -35.62831346 Ry
     ewald contribution        =     223.48434717 Ry
     one-center paw contrib.   =     -38.35093424 Ry

     convergence has been achieved in   6 iterations

     negative rho (up, down):  4.845E-04 0.000E+00

     Forces acting on atoms (cartesian axes, Ry/au):

     atom    1 type  1   force =     0.00000839    0.00003609    0.00000061
     atom    2 type  1   force =    -0.00001131   -0.00003009    0.00004119
     atom    3 type  1   force =     0.00001930   -0.00000580    0.00001450
     atom    4 type  1   force =     0.00001032   -0.00000602   -0.00006803
     atom    5 type  1   force =    -0.00002007   -0.00003104    0.00000272
     atom    6 type  1   force =    -0.00002488    0.00001189    0.00000083
     atom    7 type  1   force =    -0.00001901    0.00001437    0.00000966
     atom    8 type  1   force =     0.00008152    0.00000813   -0.00002463
     atom    9 type  2   force =    -0.00000766    0.00000862   -0.00007225
     atom   10 type  2   force =     0.00003356    0.00002180    0.00006427
     atom   11 type  2   force =     0.00003355   -0.00001509    0.00001509
     atom   12 type  2   force =    -0.00010370   -0.00001285    0.00001605

     Total force =     0.000208     Total SCF correction =     0.000001
     Energy error            =      6.9E-08 Ry
     Gradient error          =      1.0E-04 Ry/Bohr

     number of scf cycles    =  74
     number of bfgs steps    =  72

     energy             old  =    -176.3208615950 Ry
     energy             new  =    -176.3208616643 Ry

     CASE: energy            _new < energy            _old

     new trust radius        =       0.0005749127 bohr
     new conv_thr            =            1.0E-12 Ry


ATOMIC_POSITIONS (angstrom)
H             4.4744474023        3.7441596329       11.2232179874
H             5.3215548269        4.3038072280       10.0182807890
H             3.2957164584        1.1572092482        8.0884813624
H             3.1449861918        2.8650078075        9.3216834621
H             3.9918250123        3.4247101907        8.1165932583
H             6.3304532274        3.9822243957        8.0944036380
H             3.0077688291        1.8170901242       11.2512831513
H             2.1358619828        3.1863544239       11.2457073230
O             5.2918310025        4.2804959106       11.0191555276
O             3.1745380543        2.8882770154        8.3207968677
O             5.4262115480        4.3700407963        8.2646736318
O             3.0401919150        2.7987299845       11.0754090792



     Writing config-only to output data dir ./output/f-BH.save/
     NEW-OLD atomic charge density approx. for the potential

     negative rho (up, down):  4.845E-04 0.000E+00

     total cpu time spent up to now is     5363.9 secs

     per-process dynamical memory:   210.7 Mb

     Self-consistent Calculation

     iteration #  1     ecut=    60.00 Ry     beta= 0.70
     Davidson diagonalization with overlap
     ethr =  1.00E-06,  avg # of iterations =  2.0

     Threshold (ethr) on eigenvalues was too large:
     Diagonalizing with lowered threshold

     Davidson diagonalization with overlap
     ethr =  1.70E-10,  avg # of iterations =  3.0

     negative rho (up, down):  4.845E-04 0.000E+00

     total cpu time spent up to now is     5375.4 secs

     total energy              =    -176.32086171 Ry
     estimated scf accuracy    <       0.00000008 Ry

     iteration #  2     ecut=    60.00 Ry     beta= 0.70
     Davidson diagonalization with overlap
     ethr =  2.43E-10,  avg # of iterations =  2.0

     negative rho (up, down):  4.845E-04 0.000E+00

     total cpu time spent up to now is     5380.8 secs

     total energy              =    -176.32086172 Ry
     estimated scf accuracy    <          7.1E-09 Ry

     iteration #  3     ecut=    60.00 Ry     beta= 0.70
     Davidson diagonalization with overlap
     ethr =  2.23E-11,  avg # of iterations =  2.0

     negative rho (up, down):  4.845E-04 0.000E+00

     total cpu time spent up to now is     5386.4 secs

     total energy              =    -176.32086172 Ry
     estimated scf accuracy    <          1.2E-09 Ry

     iteration #  4     ecut=    60.00 Ry     beta= 0.70
     Davidson diagonalization with overlap
     ethr =  3.76E-12,  avg # of iterations =  2.0

     negative rho (up, down):  4.845E-04 0.000E+00

     total cpu time spent up to now is     5391.8 secs

     total energy              =    -176.32086172 Ry
     estimated scf accuracy    <          5.9E-11 Ry

     iteration #  5     ecut=    60.00 Ry     beta= 0.70
     Davidson diagonalization with overlap
     ethr =  1.83E-13,  avg # of iterations =  2.9

     negative rho (up, down):  4.845E-04 0.000E+00

     total cpu time spent up to now is     5397.6 secs

     total energy              =    -176.32086172 Ry
     estimated scf accuracy    <          1.1E-11 Ry

     iteration #  6     ecut=    60.00 Ry     beta= 0.70
     Davidson diagonalization with overlap
     ethr =  1.00E-13,  avg # of iterations =  2.0

     negative rho (up, down):  4.845E-04 0.000E+00

     total cpu time spent up to now is     5402.2 secs

     End of self-consistent calculation

          k = 0.0000 0.0000 0.0000 ( 18047 PWs)   bands (ev):

   -24.6489 -24.2321 -23.4473 -23.0833 -12.0259 -11.8847 -11.8753 -11.8107
   -10.1091  -9.0474  -7.5399  -7.0152  -6.4279  -6.4097  -6.3231  -6.1815

          k =-0.0153 0.2863 0.0000 ( 18132 PWs)   bands (ev):

   -24.5129 -24.1003 -23.6178 -23.2476 -12.1493 -12.1034 -11.6415 -11.5782
    -9.8782  -8.9639  -7.7397  -7.3442  -6.5413  -6.4418  -6.2123  -6.1008

          k = 0.0307-0.5725 0.0000 ( 18166 PWs)   bands (ev):

   -24.2864 -23.9008 -23.8553 -23.5020 -12.2150 -12.2012 -11.5071 -11.4286
    -9.5696  -8.8345  -8.0014  -7.7431  -6.5949  -6.4432  -6.1211  -6.0271

          k = 0.2575-0.1328 0.0000 ( 18109 PWs)   bands (ev):

   -24.5108 -24.0983 -23.6194 -23.2492 -12.1668 -12.1242 -11.6244 -11.5761
    -9.8745  -8.9645  -7.7346  -7.3378  -6.5381  -6.4407  -6.2065  -6.1018

          k = 0.2421 0.1535 0.0000 ( 18132 PWs)   bands (ev):

   -24.5124 -24.1052 -23.6179 -23.2422 -12.0695 -11.9200 -11.8926 -11.6806
    -9.7756  -8.8630  -7.9006  -7.3994  -6.4055  -6.3152  -6.2423  -6.2243

          k = 0.2882-0.7053 0.0000 ( 18147 PWs)   bands (ev):

   -24.2850 -23.9195 -23.8477 -23.4912 -12.1880 -12.1450 -11.6285 -11.4852
    -9.4059  -8.6196  -8.2708  -7.8555  -6.5082  -6.3954  -6.1178  -6.0566

          k = 0.2728-0.4190 0.0000 ( 18128 PWs)   bands (ev):

   -24.2823 -23.9014 -23.8540 -23.5058 -12.2363 -12.2316 -11.4832 -11.4242
    -9.5436  -8.8012  -8.0199  -7.7906  -6.5766  -6.4488  -6.0873  -6.0334

          k =-0.5150 0.2656 0.0000 ( 18184 PWs)   bands (ev):

   -24.2773 -23.9031 -23.8521 -23.5104 -12.2463 -12.2259 -11.4952 -11.4232
    -9.5682  -8.8400  -7.9876  -7.7188  -6.5883  -6.4434  -6.1104  -6.0260

          k =-0.5303 0.5518 0.0000 ( 18128 PWs)   bands (ev):

   -24.2804 -23.9198 -23.8472 -23.4952 -12.2037 -12.1609 -11.6200 -11.4800
    -9.4062  -8.6269  -8.2627  -7.8431  -6.5067  -6.3934  -6.1102  -6.0574

          k =-0.4843-0.3070 0.0000 ( 18166 PWs)   bands (ev):

   -24.2824 -23.9382 -23.8401 -23.4820 -12.1126 -11.9484 -11.8896 -11.5817
    -9.2213  -8.6915  -8.1718  -8.0353  -6.3630  -6.2992  -6.1914  -6.1733

     highest occupied level (ev):    -6.0260

!    total energy              =    -176.32086172 Ry

     total all-electron energy =      -611.708407 Ry
     estimated scf accuracy    <          9.7E-13 Ry

     The total energy is the sum of the following terms:
     one-electron contribution =    -667.74955552 Ry
     hartree contribution      =     341.91092798 Ry
     xc contribution           =     -35.62843065 Ry
     ewald contribution        =     223.49713118 Ry
     one-center paw contrib.   =     -38.35093471 Ry

     convergence has been achieved in   6 iterations

     negative rho (up, down):  4.845E-04 0.000E+00

     Forces acting on atoms (cartesian axes, Ry/au):

     atom    1 type  1   force =     0.00000662    0.00000970    0.00000561
     atom    2 type  1   force =    -0.00002006   -0.00000499    0.00002498
     atom    3 type  1   force =     0.00001510   -0.00000980    0.00001601
     atom    4 type  1   force =     0.00000715    0.00000168   -0.00003380
     atom    5 type  1   force =    -0.00000757   -0.00001893    0.00000809
     atom    6 type  1   force =    -0.00000076    0.00000593   -0.00001022
     atom    7 type  1   force =    -0.00000809    0.00002047    0.00000620
     atom    8 type  1   force =     0.00002940    0.00000496   -0.00000297
     atom    9 type  2   force =    -0.00001181    0.00000207   -0.00003775
     atom   10 type  2   force =     0.00002233    0.00000798    0.00004021
     atom   11 type  2   force =     0.00002006   -0.00001359   -0.00001076
     atom   12 type  2   force =    -0.00005238   -0.00000548   -0.00000561

     Total force =     0.000111     Total SCF correction =     0.000002
     Energy error            =      5.6E-08 Ry
     Gradient error          =      5.2E-05 Ry/Bohr

     number of scf cycles    =  75
     number of bfgs steps    =  73

     energy             old  =    -176.3208616643 Ry
     energy             new  =    -176.3208617204 Ry

     CASE: energy            _new < energy            _old

     new trust radius        =       0.0002264807 bohr
     new conv_thr            =            1.0E-12 Ry


ATOMIC_POSITIONS (angstrom)
H             4.4744999831        3.7442662359       11.2232333074
H             5.3215768990        4.3037866311       10.0182405551
H             3.2957459250        1.1571418109        8.0885493994
H             3.1449814783        2.8649885581        9.3216777685
H             3.9917812055        3.4246633329        8.1165682488
H             6.3304270473        3.9821387689        8.0944150704
H             3.0077101873        1.8171264134       11.2512819705
H             2.1359063292        3.1864540100       11.2457129840
O             5.2918616733        4.2805846782       11.0191084506
O             3.1745197031        2.8882301796        8.3208074916
O             5.4262053147        4.3699720540        8.2647128665
O             3.0401707051        2.7987540851       11.0753779652



     Writing config-only to output data dir ./output/f-BH.save/
     NEW-OLD atomic charge density approx. for the potential

     negative rho (up, down):  4.845E-04 0.000E+00

     total cpu time spent up to now is     5414.9 secs

     per-process dynamical memory:   210.2 Mb

     Self-consistent Calculation

     iteration #  1     ecut=    60.00 Ry     beta= 0.70
     Davidson diagonalization with overlap
     ethr =  1.00E-06,  avg # of iterations =  2.0

     Threshold (ethr) on eigenvalues was too large:
     Diagonalizing with lowered threshold

     Davidson diagonalization with overlap
     ethr =  2.14E-11,  avg # of iterations =  4.0

     negative rho (up, down):  4.845E-04 0.000E+00

     total cpu time spent up to now is     5427.0 secs

     total energy              =    -176.32086173 Ry
     estimated scf accuracy    <       0.00000001 Ry

     iteration #  2     ecut=    60.00 Ry     beta= 0.70
     Davidson diagonalization with overlap
     ethr =  4.17E-11,  avg # of iterations =  2.0

     negative rho (up, down):  4.845E-04 0.000E+00

     total cpu time spent up to now is     5432.4 secs

     total energy              =    -176.32086173 Ry
     estimated scf accuracy    <          1.3E-09 Ry

     iteration #  3     ecut=    60.00 Ry     beta= 0.70
     Davidson diagonalization with overlap
     ethr =  4.22E-12,  avg # of iterations =  2.0

     negative rho (up, down):  4.845E-04 0.000E+00

     total cpu time spent up to now is     5438.0 secs

     total energy              =    -176.32086173 Ry
     estimated scf accuracy    <          1.6E-10 Ry

     iteration #  4     ecut=    60.00 Ry     beta= 0.70
     Davidson diagonalization with overlap
     ethr =  5.02E-13,  avg # of iterations =  2.0

     negative rho (up, down):  4.845E-04 0.000E+00

     total cpu time spent up to now is     5443.3 secs

     total energy              =    -176.32086173 Ry
     estimated scf accuracy    <          7.8E-12 Ry

     iteration #  5     ecut=    60.00 Ry     beta= 0.70
     Davidson diagonalization with overlap
     ethr =  1.00E-13,  avg # of iterations =  1.0

     negative rho (up, down):  4.845E-04 0.000E+00

     total cpu time spent up to now is     5447.5 secs

     End of self-consistent calculation

          k = 0.0000 0.0000 0.0000 ( 18047 PWs)   bands (ev):

   -24.6490 -24.2321 -23.4474 -23.0834 -12.0260 -11.8847 -11.8754 -11.8107
   -10.1090  -9.0473  -7.5399  -7.0152  -6.4278  -6.4097  -6.3230  -6.1814

          k =-0.0153 0.2863 0.0000 ( 18132 PWs)   bands (ev):

   -24.5130 -24.1003 -23.6179 -23.2476 -12.1492 -12.1034 -11.6415 -11.5783
    -9.8781  -8.9638  -7.7397  -7.3441  -6.5413  -6.4417  -6.2122  -6.1007

          k = 0.0307-0.5725 0.0000 ( 18166 PWs)   bands (ev):

   -24.2865 -23.9009 -23.8553 -23.5021 -12.2150 -12.2011 -11.5072 -11.4288
    -9.5695  -8.8343  -8.0014  -7.7431  -6.5948  -6.4432  -6.1210  -6.0270

          k = 0.2575-0.1328 0.0000 ( 18109 PWs)   bands (ev):

   -24.5108 -24.0983 -23.6195 -23.2492 -12.1668 -12.1242 -11.6245 -11.5761
    -9.8743  -8.9644  -7.7346  -7.3377  -6.5381  -6.4406  -6.2065  -6.1017

          k = 0.2421 0.1535 0.0000 ( 18132 PWs)   bands (ev):

   -24.5124 -24.1052 -23.6180 -23.2422 -12.0695 -11.9200 -11.8926 -11.6806
    -9.7755  -8.8629  -7.9006  -7.3993  -6.4054  -6.3152  -6.2423  -6.2243

          k = 0.2882-0.7053 0.0000 ( 18147 PWs)   bands (ev):

   -24.2851 -23.9196 -23.8477 -23.4912 -12.1880 -12.1450 -11.6286 -11.4853
    -9.4058  -8.6194  -8.2708  -7.8554  -6.5081  -6.3953  -6.1177  -6.0565

          k = 0.2728-0.4190 0.0000 ( 18128 PWs)   bands (ev):

   -24.2823 -23.9015 -23.8540 -23.5058 -12.2362 -12.2316 -11.4833 -11.4243
    -9.5434  -8.8010  -8.0199  -7.7905  -6.5765  -6.4487  -6.0872  -6.0333

          k =-0.5150 0.2656 0.0000 ( 18184 PWs)   bands (ev):

   -24.2773 -23.9032 -23.8520 -23.5104 -12.2462 -12.2259 -11.4952 -11.4232
    -9.5681  -8.8399  -7.9876  -7.7187  -6.5882  -6.4433  -6.1103  -6.0260

          k =-0.5303 0.5518 0.0000 ( 18128 PWs)   bands (ev):

   -24.2805 -23.9199 -23.8472 -23.4951 -12.2037 -12.1609 -11.6200 -11.4801
    -9.4061  -8.6267  -8.2627  -7.8430  -6.5066  -6.3933  -6.1102  -6.0573

          k =-0.4843-0.3070 0.0000 ( 18166 PWs)   bands (ev):

   -24.2825 -23.9383 -23.8401 -23.4820 -12.1126 -11.9484 -11.8896 -11.5818
    -9.2212  -8.6915  -8.1717  -8.0352  -6.3629  -6.2991  -6.1914  -6.1733

     highest occupied level (ev):    -6.0260

!    total energy              =    -176.32086173 Ry

     total all-electron energy =      -611.708407 Ry
     estimated scf accuracy    <          7.0E-13 Ry

     The total energy is the sum of the following terms:
     one-electron contribution =    -667.75727460 Ry
     hartree contribution      =     341.91486074 Ry
     xc contribution           =     -35.62851282 Ry
     ewald contribution        =     223.50099953 Ry
     one-center paw contrib.   =     -38.35093458 Ry

     convergence has been achieved in   5 iterations

     negative rho (up, down):  4.845E-04 0.000E+00

     Forces acting on atoms (cartesian axes, Ry/au):

     atom    1 type  1   force =    -0.00000281   -0.00000131    0.00000557
     atom    2 type  1   force =    -0.00001989    0.00000079    0.00000678
     atom    3 type  1   force =     0.00001094   -0.00000585    0.00001157
     atom    4 type  1   force =     0.00000591    0.00000221   -0.00000513
     atom    5 type  1   force =     0.00000564   -0.00001169    0.00000830
     atom    6 type  1   force =     0.00000963    0.00000158   -0.00001045
     atom    7 type  1   force =    -0.00000685    0.00001221    0.00000313
     atom    8 type  1   force =     0.00000033    0.00000793   -0.00000011
     atom    9 type  2   force =    -0.00001195    0.00000221   -0.00001104
     atom   10 type  2   force =     0.00001160   -0.00000364    0.00001216
     atom   11 type  2   force =     0.00001315   -0.00000888   -0.00001386
     atom   12 type  2   force =    -0.00001571    0.00000444   -0.00000691

     Total force =     0.000054     Total SCF correction =     0.000001
     Energy error            =      1.0E-08 Ry
     Gradient error          =      2.0E-05 Ry/Bohr

     number of scf cycles    =  76
     number of bfgs steps    =  74

     energy             old  =    -176.3208617204 Ry
     energy             new  =    -176.3208617308 Ry

     CASE: energy            _new < energy            _old

     new trust radius        =       0.0001198896 bohr
     new conv_thr            =            1.0E-12 Ry


ATOMIC_POSITIONS (angstrom)
H             4.4745383485        3.7443095456       11.2232457486
H             5.3215760950        4.3037868556       10.0182176577
H             3.2957670515        1.1570955525        8.0885873312
H             3.1449685015        2.8649952511        9.3216902931
H             3.9917532864        3.4246377828        8.1165664987
H             6.3304196803        3.9820840693        8.0943926520
H             3.0076879796        1.8171588615       11.2512900254
H             2.1359274375        3.1865065679       11.2457302746
O             5.2918788344        4.2806298686       11.0190796752
O             3.1745057557        2.8882050945        8.3208274106
O             5.4262043154        4.3699195800        8.2646993547
O             3.0401591649        2.7987777287       11.0753591561



     Writing config-only to output data dir ./output/f-BH.save/
     NEW-OLD atomic charge density approx. for the potential

     negative rho (up, down):  4.845E-04 0.000E+00

     total cpu time spent up to now is     5460.2 secs

     per-process dynamical memory:   210.7 Mb

     Self-consistent Calculation

     iteration #  1     ecut=    60.00 Ry     beta= 0.70
     Davidson diagonalization with overlap
     ethr =  1.00E-06,  avg # of iterations =  2.0

     Threshold (ethr) on eigenvalues was too large:
     Diagonalizing with lowered threshold

     Davidson diagonalization with overlap
     ethr =  6.79E-12,  avg # of iterations =  4.3

     negative rho (up, down):  4.845E-04 0.000E+00

     total cpu time spent up to now is     5472.6 secs

     total energy              =    -176.32086173 Ry
     estimated scf accuracy    <          5.1E-09 Ry

     iteration #  2     ecut=    60.00 Ry     beta= 0.70
     Davidson diagonalization with overlap
     ethr =  1.59E-11,  avg # of iterations =  2.0

     negative rho (up, down):  4.845E-04 0.000E+00

     total cpu time spent up to now is     5478.0 secs

     total energy              =    -176.32086174 Ry
     estimated scf accuracy    <          3.8E-10 Ry

     iteration #  3     ecut=    60.00 Ry     beta= 0.70
     Davidson diagonalization with overlap
     ethr =  1.20E-12,  avg # of iterations =  2.0

     negative rho (up, down):  4.845E-04 0.000E+00

     total cpu time spent up to now is     5483.7 secs

     total energy              =    -176.32086174 Ry
     estimated scf accuracy    <          5.1E-11 Ry

     iteration #  4     ecut=    60.00 Ry     beta= 0.70
     Davidson diagonalization with overlap
     ethr =  1.60E-13,  avg # of iterations =  2.0

     negative rho (up, down):  4.845E-04 0.000E+00

     total cpu time spent up to now is     5489.2 secs

     total energy              =    -176.32086174 Ry
     estimated scf accuracy    <          2.7E-12 Ry

     iteration #  5     ecut=    60.00 Ry     beta= 0.70
     Davidson diagonalization with overlap
     ethr =  1.00E-13,  avg # of iterations =  1.0

     negative rho (up, down):  4.845E-04 0.000E+00

     total cpu time spent up to now is     5493.4 secs

     End of self-consistent calculation

          k = 0.0000 0.0000 0.0000 ( 18047 PWs)   bands (ev):

   -24.6490 -24.2321 -23.4475 -23.0834 -12.0260 -11.8847 -11.8754 -11.8108
   -10.1089  -9.0472  -7.5399  -7.0151  -6.4278  -6.4096  -6.3230  -6.1813

          k =-0.0153 0.2863 0.0000 ( 18132 PWs)   bands (ev):

   -24.5130 -24.1003 -23.6179 -23.2476 -12.1492 -12.1034 -11.6415 -11.5784
    -9.8780  -8.9638  -7.7397  -7.3441  -6.5412  -6.4417  -6.2121  -6.1006

          k = 0.0307-0.5725 0.0000 ( 18166 PWs)   bands (ev):

   -24.2865 -23.9009 -23.8553 -23.5020 -12.2150 -12.2011 -11.5072 -11.4289
    -9.5694  -8.8343  -8.0014  -7.7430  -6.5948  -6.4431  -6.1209  -6.0270

          k = 0.2575-0.1328 0.0000 ( 18109 PWs)   bands (ev):

   -24.5108 -24.0983 -23.6196 -23.2493 -12.1667 -12.1242 -11.6245 -11.5761
    -9.8743  -8.9644  -7.7346  -7.3376  -6.5380  -6.4406  -6.2064  -6.1017

          k = 0.2421 0.1535 0.0000 ( 18132 PWs)   bands (ev):

   -24.5125 -24.1052 -23.6180 -23.2422 -12.0695 -11.9200 -11.8926 -11.6806
    -9.7755  -8.8628  -7.9006  -7.3993  -6.4054  -6.3151  -6.2423  -6.2242

          k = 0.2882-0.7053 0.0000 ( 18147 PWs)   bands (ev):

   -24.2851 -23.9196 -23.8477 -23.4912 -12.1880 -12.1450 -11.6286 -11.4853
    -9.4057  -8.6194  -8.2708  -7.8554  -6.5081  -6.3953  -6.1177  -6.0565

          k = 0.2728-0.4190 0.0000 ( 18128 PWs)   bands (ev):

   -24.2823 -23.9015 -23.8540 -23.5059 -12.2362 -12.2316 -11.4833 -11.4244
    -9.5434  -8.8009  -8.0199  -7.7905  -6.5765  -6.4487  -6.0872  -6.0333

          k =-0.5150 0.2656 0.0000 ( 18184 PWs)   bands (ev):

   -24.2774 -23.9032 -23.8520 -23.5104 -12.2462 -12.2259 -11.4953 -11.4232
    -9.5680  -8.8398  -7.9876  -7.7187  -6.5882  -6.4433  -6.1103  -6.0259

          k =-0.5303 0.5518 0.0000 ( 18128 PWs)   bands (ev):

   -24.2805 -23.9199 -23.8472 -23.4952 -12.2037 -12.1609 -11.6201 -11.4801
    -9.4060  -8.6267  -8.2627  -7.8429  -6.5066  -6.3933  -6.1101  -6.0573

          k =-0.4843-0.3070 0.0000 ( 18166 PWs)   bands (ev):

   -24.2825 -23.9383 -23.8401 -23.4820 -12.1126 -11.9484 -11.8896 -11.5818
    -9.2212  -8.6914  -8.1716  -8.0351  -6.3628  -6.2991  -6.1913  -6.1732

     highest occupied level (ev):    -6.0259

!    total energy              =    -176.32086174 Ry

     total all-electron energy =      -611.708407 Ry
     estimated scf accuracy    <          2.5E-13 Ry

     The total energy is the sum of the following terms:
     one-electron contribution =    -667.76029662 Ry
     hartree contribution      =     341.91641853 Ry
     xc contribution           =     -35.62855584 Ry
     ewald contribution        =     223.50250679 Ry
     one-center paw contrib.   =     -38.35093459 Ry

     convergence has been achieved in   5 iterations

     negative rho (up, down):  4.845E-04 0.000E+00

     Forces acting on atoms (cartesian axes, Ry/au):

     atom    1 type  1   force =    -0.00000930   -0.00000512    0.00000415
     atom    2 type  1   force =    -0.00001819    0.00000099   -0.00000512
     atom    3 type  1   force =     0.00000823   -0.00000335    0.00000726
     atom    4 type  1   force =     0.00000492    0.00000110    0.00000759
     atom    5 type  1   force =     0.00001344   -0.00000829    0.00000690
     atom    6 type  1   force =     0.00001489   -0.00000145   -0.00000885
     atom    7 type  1   force =    -0.00000617    0.00000779    0.00000044
     atom    8 type  1   force =    -0.00001450    0.00001163   -0.00000100
     atom    9 type  2   force =    -0.00001131    0.00000359    0.00000606
     atom   10 type  2   force =     0.00000683   -0.00000979   -0.00000195
     atom   11 type  2   force =     0.00000819   -0.00000338   -0.00001254
     atom   12 type  2   force =     0.00000295    0.00000628   -0.00000294

     Total force =     0.000049     Total SCF correction =     0.000001
     Energy error            =      4.5E-09 Ry
     Gradient error          =      1.8E-05 Ry/Bohr

     number of scf cycles    =  77
     number of bfgs steps    =  75

     energy             old  =    -176.3208617308 Ry
     energy             new  =    -176.3208617353 Ry

     CASE: energy            _new < energy            _old

     new trust radius        =       0.0000933286 bohr
     new conv_thr            =            1.0E-12 Ry


ATOMIC_POSITIONS (angstrom)
H             4.4745564109        3.7443313233       11.2232616547
H             5.3215563017        4.3037878232       10.0182054496
H             3.2957895486        1.1570621801        8.0886159542
H             3.1449655958        2.8650010044        9.3216980584
H             3.9917452945        3.4246107610        8.1165680540
H             6.3304280238        3.9820502739        8.0943640948
H             3.0076662897        1.8171911000       11.2513017558
H             2.1359362116        3.1865504467       11.2457436329
O             5.2918774421        4.2806601671       11.0190632409
O             3.1745053954        2.8881816905        8.3208420719
O             5.4262129031        4.3698793491        8.2646742858
O             3.0401470337        2.7988006387       11.0753478249



     Writing config-only to output data dir ./output/f-BH.save/
     NEW-OLD atomic charge density approx. for the potential

     negative rho (up, down):  4.845E-04 0.000E+00

     total cpu time spent up to now is     5506.1 secs

     per-process dynamical memory:   210.2 Mb

     Self-consistent Calculation

     iteration #  1     ecut=    60.00 Ry     beta= 0.70
     Davidson diagonalization with overlap
     ethr =  1.00E-06,  avg # of iterations =  2.0

     Threshold (ethr) on eigenvalues was too large:
     Diagonalizing with lowered threshold

     Davidson diagonalization with overlap
     ethr =  3.87E-12,  avg # of iterations =  4.8

     negative rho (up, down):  4.845E-04 0.000E+00

     total cpu time spent up to now is     5518.7 secs

     total energy              =    -176.32086174 Ry
     estimated scf accuracy    <          2.9E-09 Ry

     iteration #  2     ecut=    60.00 Ry     beta= 0.70
     Davidson diagonalization with overlap
     ethr =  9.12E-12,  avg # of iterations =  2.0

     negative rho (up, down):  4.845E-04 0.000E+00

     total cpu time spent up to now is     5524.2 secs

     total energy              =    -176.32086174 Ry
     estimated scf accuracy    <          1.8E-10 Ry

     iteration #  3     ecut=    60.00 Ry     beta= 0.70
     Davidson diagonalization with overlap
     ethr =  5.73E-13,  avg # of iterations =  2.0

     negative rho (up, down):  4.845E-04 0.000E+00

     total cpu time spent up to now is     5529.9 secs

     total energy              =    -176.32086174 Ry
     estimated scf accuracy    <          2.6E-11 Ry

     iteration #  4     ecut=    60.00 Ry     beta= 0.70
     Davidson diagonalization with overlap
     ethr =  1.00E-13,  avg # of iterations =  2.0

     negative rho (up, down):  4.845E-04 0.000E+00

     total cpu time spent up to now is     5535.2 secs

     total energy              =    -176.32086174 Ry
     estimated scf accuracy    <          1.4E-12 Ry

     iteration #  5     ecut=    60.00 Ry     beta= 0.70
     Davidson diagonalization with overlap
     ethr =  1.00E-13,  avg # of iterations =  1.0

     negative rho (up, down):  4.845E-04 0.000E+00

     total cpu time spent up to now is     5539.4 secs

     End of self-consistent calculation

          k = 0.0000 0.0000 0.0000 ( 18047 PWs)   bands (ev):

   -24.6490 -24.2321 -23.4475 -23.0834 -12.0260 -11.8847 -11.8754 -11.8108
   -10.1089  -9.0472  -7.5399  -7.0151  -6.4277  -6.4096  -6.3230  -6.1813

          k =-0.0153 0.2863 0.0000 ( 18132 PWs)   bands (ev):

   -24.5130 -24.1003 -23.6179 -23.2476 -12.1492 -12.1034 -11.6416 -11.5785
    -9.8780  -8.9638  -7.7397  -7.3441  -6.5412  -6.4417  -6.2121  -6.1006

          k = 0.0307-0.5725 0.0000 ( 18166 PWs)   bands (ev):

   -24.2865 -23.9009 -23.8553 -23.5021 -12.2150 -12.2010 -11.5072 -11.4290
    -9.5694  -8.8342  -8.0014  -7.7430  -6.5947  -6.4431  -6.1209  -6.0269

          k = 0.2575-0.1328 0.0000 ( 18109 PWs)   bands (ev):

   -24.5108 -24.0983 -23.6196 -23.2493 -12.1667 -12.1242 -11.6246 -11.5761
    -9.8742  -8.9643  -7.7346  -7.3376  -6.5380  -6.4406  -6.2064  -6.1016

          k = 0.2421 0.1535 0.0000 ( 18132 PWs)   bands (ev):

   -24.5125 -24.1052 -23.6180 -23.2422 -12.0695 -11.9200 -11.8927 -11.6806
    -9.7754  -8.8628  -7.9006  -7.3993  -6.4054  -6.3151  -6.2422  -6.2242

          k = 0.2882-0.7053 0.0000 ( 18147 PWs)   bands (ev):

   -24.2852 -23.9196 -23.8477 -23.4912 -12.1880 -12.1450 -11.6287 -11.4854
    -9.4057  -8.6193  -8.2707  -7.8554  -6.5080  -6.3953  -6.1177  -6.0564

          k = 0.2728-0.4190 0.0000 ( 18128 PWs)   bands (ev):

   -24.2823 -23.9016 -23.8540 -23.5059 -12.2361 -12.2316 -11.4834 -11.4244
    -9.5433  -8.8009  -8.0199  -7.7904  -6.5765  -6.4487  -6.0871  -6.0333

          k =-0.5150 0.2656 0.0000 ( 18184 PWs)   bands (ev):

   -24.2774 -23.9032 -23.8520 -23.5104 -12.2461 -12.2259 -11.4954 -11.4233
    -9.5680  -8.8397  -7.9876  -7.7187  -6.5882  -6.4433  -6.1103  -6.0259

          k =-0.5303 0.5518 0.0000 ( 18128 PWs)   bands (ev):

   -24.2805 -23.9200 -23.8472 -23.4952 -12.2036 -12.1609 -11.6201 -11.4802
    -9.4060  -8.6266  -8.2626  -7.8429  -6.5066  -6.3933  -6.1101  -6.0573

          k =-0.4843-0.3070 0.0000 ( 18166 PWs)   bands (ev):

   -24.2825 -23.9383 -23.8401 -23.4820 -12.1126 -11.9484 -11.8897 -11.5819
    -9.2211  -8.6914  -8.1716  -8.0351  -6.3628  -6.2990  -6.1913  -6.1732

     highest occupied level (ev):    -6.0259

!    total energy              =    -176.32086174 Ry

     total all-electron energy =      -611.708407 Ry
     estimated scf accuracy    <          1.2E-13 Ry

     The total energy is the sum of the following terms:
     one-electron contribution =    -667.76115074 Ry
     hartree contribution      =     341.91687127 Ry
     xc contribution           =     -35.62858477 Ry
     ewald contribution        =     223.50293709 Ry
     one-center paw contrib.   =     -38.35093460 Ry

     convergence has been achieved in   5 iterations

     negative rho (up, down):  4.845E-04 0.000E+00

     Forces acting on atoms (cartesian axes, Ry/au):

     atom    1 type  1   force =    -0.00001387   -0.00000676    0.00000275
     atom    2 type  1   force =    -0.00001561    0.00000041   -0.00001256
     atom    3 type  1   force =     0.00000607   -0.00000052    0.00000303
     atom    4 type  1   force =     0.00000323   -0.00000015    0.00001803
     atom    5 type  1   force =     0.00001961   -0.00000532    0.00000454
     atom    6 type  1   force =     0.00001701   -0.00000405   -0.00000669
     atom    7 type  1   force =    -0.00000584    0.00000206   -0.00000122
     atom    8 type  1   force =    -0.00002270    0.00001354   -0.00000252
     atom    9 type  2   force =    -0.00001010    0.00000474    0.00001633
     atom   10 type  2   force =     0.00000396   -0.00001353   -0.00001245
     atom   11 type  2   force =     0.00000526   -0.00000053   -0.00000988
     atom   12 type  2   force =     0.00001299    0.00001012    0.00000066

     Total force =     0.000061     Total SCF correction =     0.000000
     Energy error            =      4.7E-09 Ry
     Gradient error          =      2.3E-05 Ry/Bohr

     number of scf cycles    =  78
     number of bfgs steps    =  76

     energy             old  =    -176.3208617353 Ry
     energy             new  =    -176.3208617400 Ry

     CASE: energy            _new < energy            _old

     new trust radius        =       0.0001026614 bohr
     new conv_thr            =            1.0E-12 Ry


ATOMIC_POSITIONS (angstrom)
H             4.4745576113        3.7443484774       11.2232796533
H             5.3215198523        4.3037876772       10.0181943180
H             3.2958200161        1.1570325272        8.0886497738
H             3.1449723642        2.8650015286        9.3217063528
H             3.9917544486        3.4245712841        8.1165724724
H             6.3304512294        3.9820233738        8.0943371082
H             3.0076326592        1.8172283558       11.2513113964
H             2.1359374174        3.1866027285       11.2457445833
O             5.2918586650        4.2806902196       11.0190494294
O             3.1745171278        2.8881495344        8.3208547646
O             5.4262339794        4.3698410265        8.2646500486
O             3.0401310801        2.7988300250       11.0753361770



     Writing config-only to output data dir ./output/f-BH.save/
     NEW-OLD atomic charge density approx. for the potential

     negative rho (up, down):  4.845E-04 0.000E+00

     total cpu time spent up to now is     5552.1 secs

     per-process dynamical memory:   210.7 Mb

     Self-consistent Calculation

     iteration #  1     ecut=    60.00 Ry     beta= 0.70
     Davidson diagonalization with overlap
     ethr =  1.00E-06,  avg # of iterations =  2.0

     Threshold (ethr) on eigenvalues was too large:
     Diagonalizing with lowered threshold

     Davidson diagonalization with overlap
     ethr =  5.00E-12,  avg # of iterations =  4.6

     negative rho (up, down):  4.845E-04 0.000E+00

     total cpu time spent up to now is     5564.7 secs

     total energy              =    -176.32086175 Ry
     estimated scf accuracy    <          3.4E-09 Ry

     iteration #  2     ecut=    60.00 Ry     beta= 0.70
     Davidson diagonalization with overlap
     ethr =  1.07E-11,  avg # of iterations =  2.0

     negative rho (up, down):  4.845E-04 0.000E+00

     total cpu time spent up to now is     5570.0 secs

     total energy              =    -176.32086175 Ry
     estimated scf accuracy    <          1.8E-10 Ry

     iteration #  3     ecut=    60.00 Ry     beta= 0.70
     Davidson diagonalization with overlap
     ethr =  5.57E-13,  avg # of iterations =  2.0

     negative rho (up, down):  4.845E-04 0.000E+00

     total cpu time spent up to now is     5575.5 secs

     total energy              =    -176.32086175 Ry
     estimated scf accuracy    <          2.3E-11 Ry

     iteration #  4     ecut=    60.00 Ry     beta= 0.70
     Davidson diagonalization with overlap
     ethr =  1.00E-13,  avg # of iterations =  2.0

     negative rho (up, down):  4.845E-04 0.000E+00

     total cpu time spent up to now is     5581.0 secs

     total energy              =    -176.32086175 Ry
     estimated scf accuracy    <          2.2E-12 Ry

     iteration #  5     ecut=    60.00 Ry     beta= 0.70
     Davidson diagonalization with overlap
     ethr =  1.00E-13,  avg # of iterations =  1.0

     negative rho (up, down):  4.845E-04 0.000E+00

     total cpu time spent up to now is     5585.2 secs

     End of self-consistent calculation

          k = 0.0000 0.0000 0.0000 ( 18047 PWs)   bands (ev):

   -24.6490 -24.2321 -23.4475 -23.0834 -12.0260 -11.8846 -11.8754 -11.8108
   -10.1089  -9.0472  -7.5399  -7.0151  -6.4277  -6.4096  -6.3230  -6.1813

          k =-0.0153 0.2863 0.0000 ( 18132 PWs)   bands (ev):

   -24.5130 -24.1003 -23.6179 -23.2476 -12.1492 -12.1033 -11.6415 -11.5785
    -9.8780  -8.9638  -7.7397  -7.3441  -6.5412  -6.4417  -6.2121  -6.1006

          k = 0.0307-0.5725 0.0000 ( 18166 PWs)   bands (ev):

   -24.2865 -23.9010 -23.8553 -23.5021 -12.2150 -12.2010 -11.5073 -11.4290
    -9.5693  -8.8342  -8.0014  -7.7430  -6.5947  -6.4431  -6.1208  -6.0269

          k = 0.2575-0.1328 0.0000 ( 18109 PWs)   bands (ev):

   -24.5109 -24.0983 -23.6196 -23.2493 -12.1667 -12.1242 -11.6247 -11.5761
    -9.8742  -8.9643  -7.7346  -7.3376  -6.5380  -6.4406  -6.2064  -6.1016

          k = 0.2421 0.1535 0.0000 ( 18132 PWs)   bands (ev):

   -24.5125 -24.1052 -23.6180 -23.2422 -12.0695 -11.9200 -11.8927 -11.6806
    -9.7754  -8.8628  -7.9006  -7.3993  -6.4053  -6.3151  -6.2422  -6.2242

          k = 0.2882-0.7053 0.0000 ( 18147 PWs)   bands (ev):

   -24.2852 -23.9197 -23.8477 -23.4912 -12.1880 -12.1450 -11.6287 -11.4854
    -9.4057  -8.6193  -8.2707  -7.8554  -6.5080  -6.3953  -6.1177  -6.0564

          k = 0.2728-0.4190 0.0000 ( 18128 PWs)   bands (ev):

   -24.2824 -23.9016 -23.8540 -23.5059 -12.2361 -12.2316 -11.4834 -11.4245
    -9.5433  -8.8009  -8.0199  -7.7904  -6.5765  -6.4487  -6.0871  -6.0332

          k =-0.5150 0.2656 0.0000 ( 18184 PWs)   bands (ev):

   -24.2774 -23.9033 -23.8520 -23.5105 -12.2461 -12.2259 -11.4954 -11.4233
    -9.5680  -8.8397  -7.9875  -7.7186  -6.5882  -6.4433  -6.1103  -6.0259

          k =-0.5303 0.5518 0.0000 ( 18128 PWs)   bands (ev):

   -24.2805 -23.9200 -23.8472 -23.4952 -12.2036 -12.1609 -11.6202 -11.4802
    -9.4060  -8.6266  -8.2626  -7.8429  -6.5066  -6.3933  -6.1101  -6.0573

          k =-0.4843-0.3070 0.0000 ( 18166 PWs)   bands (ev):

   -24.2825 -23.9384 -23.8401 -23.4820 -12.1126 -11.9484 -11.8897 -11.5819
    -9.2211  -8.6914  -8.1716  -8.0351  -6.3628  -6.2990  -6.1913  -6.1732

     highest occupied level (ev):    -6.0259

!    total energy              =    -176.32086175 Ry

     total all-electron energy =      -611.708407 Ry
     estimated scf accuracy    <          1.1E-13 Ry

     The total energy is the sum of the following terms:
     one-electron contribution =    -667.76191934 Ry
     hartree contribution      =     341.91726770 Ry
     xc contribution           =     -35.62860528 Ry
     ewald contribution        =     223.50332981 Ry
     one-center paw contrib.   =     -38.35093465 Ry

     convergence has been achieved in   5 iterations

     negative rho (up, down):  4.845E-04 0.000E+00

     Forces acting on atoms (cartesian axes, Ry/au):

     atom    1 type  1   force =    -0.00001694   -0.00000723    0.00000117
     atom    2 type  1   force =    -0.00001229   -0.00000009   -0.00001776
     atom    3 type  1   force =     0.00000407    0.00000191   -0.00000155
     atom    4 type  1   force =     0.00000090   -0.00000137    0.00002512
     atom    5 type  1   force =     0.00002424   -0.00000265    0.00000149
     atom    6 type  1   force =     0.00001800   -0.00000671   -0.00000431
     atom    7 type  1   force =    -0.00000508   -0.00000209   -0.00000289
     atom    8 type  1   force =    -0.00002885    0.00001457   -0.00000350
     atom    9 type  2   force =    -0.00000871    0.00000572    0.00002360
     atom   10 type  2   force =     0.00000341   -0.00001540   -0.00001867
     atom   11 type  2   force =     0.00000254    0.00000140   -0.00000686
     atom   12 type  2   force =     0.00001871    0.00001194    0.00000417

     Total force =     0.000073     Total SCF correction =     0.000000
     Energy error            =      6.8E-09 Ry
     Gradient error          =      2.9E-05 Ry/Bohr

     number of scf cycles    =  79
     number of bfgs steps    =  77

     energy             old  =    -176.3208617400 Ry
     energy             new  =    -176.3208617468 Ry

     CASE: energy            _new < energy            _old

     new trust radius        =       0.0001539921 bohr
     new conv_thr            =            1.0E-12 Ry


ATOMIC_POSITIONS (angstrom)
H             4.4745324400        3.7443618892       11.2233020945
H             5.3214476407        4.3037824723       10.0181783261
H             3.2958741684        1.1570044482        8.0887030273
H             3.1449966649        2.8649944305        9.3217192610
H             3.9917942784        3.4245068917        8.1165854826
H             6.3305054141        3.9820031841        8.0943081037
H             3.0075691706        1.8172789941       11.2513181368
H             2.1359240161        3.1866786919       11.2457267867
O             5.2918071420        4.2807254881       11.0190322973
O             3.1745542192        2.8880998544        8.3208718501
O             5.4262819843        4.3697993511        8.2646225086
O             3.0400993121        2.7988710625       11.0753182030



     Writing config-only to output data dir ./output/f-BH.save/
     NEW-OLD atomic charge density approx. for the potential

     negative rho (up, down):  4.845E-04 0.000E+00

     total cpu time spent up to now is     5597.9 secs

     per-process dynamical memory:   210.2 Mb

     Self-consistent Calculation

     iteration #  1     ecut=    60.00 Ry     beta= 0.70
     Davidson diagonalization with overlap
     ethr =  1.00E-06,  avg # of iterations =  2.0

     Threshold (ethr) on eigenvalues was too large:
     Diagonalizing with lowered threshold

     Davidson diagonalization with overlap
     ethr =  1.40E-11,  avg # of iterations =  4.3

     negative rho (up, down):  4.845E-04 0.000E+00

     total cpu time spent up to now is     5610.1 secs

     total energy              =    -176.32086176 Ry
     estimated scf accuracy    <          8.0E-09 Ry

     iteration #  2     ecut=    60.00 Ry     beta= 0.70
     Davidson diagonalization with overlap
     ethr =  2.50E-11,  avg # of iterations =  2.0

     negative rho (up, down):  4.845E-04 0.000E+00

     total cpu time spent up to now is     5615.4 secs

     total energy              =    -176.32086176 Ry
     estimated scf accuracy    <          4.4E-10 Ry

     iteration #  3     ecut=    60.00 Ry     beta= 0.70
     Davidson diagonalization with overlap
     ethr =  1.37E-12,  avg # of iterations =  2.0

     negative rho (up, down):  4.845E-04 0.000E+00

     total cpu time spent up to now is     5620.9 secs

     total energy              =    -176.32086176 Ry
     estimated scf accuracy    <          7.2E-11 Ry

     iteration #  4     ecut=    60.00 Ry     beta= 0.70
     Davidson diagonalization with overlap
     ethr =  2.26E-13,  avg # of iterations =  2.0

     negative rho (up, down):  4.845E-04 0.000E+00

     total cpu time spent up to now is     5626.6 secs

     total energy              =    -176.32086176 Ry
     estimated scf accuracy    <          8.2E-12 Ry

     iteration #  5     ecut=    60.00 Ry     beta= 0.70
     Davidson diagonalization with overlap
     ethr =  1.00E-13,  avg # of iterations =  1.0

     negative rho (up, down):  4.845E-04 0.000E+00

     total cpu time spent up to now is     5630.8 secs

     End of self-consistent calculation

          k = 0.0000 0.0000 0.0000 ( 18047 PWs)   bands (ev):

   -24.6490 -24.2321 -23.4475 -23.0835 -12.0260 -11.8846 -11.8754 -11.8108
   -10.1089  -9.0473  -7.5399  -7.0151  -6.4277  -6.4096  -6.3230  -6.1813

          k =-0.0153 0.2863 0.0000 ( 18132 PWs)   bands (ev):

   -24.5131 -24.1004 -23.6180 -23.2477 -12.1492 -12.1033 -11.6415 -11.5786
    -9.8780  -8.9638  -7.7397  -7.3441  -6.5412  -6.4417  -6.2121  -6.1006

          k = 0.0307-0.5725 0.0000 ( 18166 PWs)   bands (ev):

   -24.2866 -23.9010 -23.8553 -23.5021 -12.2150 -12.2009 -11.5073 -11.4291
    -9.5693  -8.8342  -8.0015  -7.7430  -6.5947  -6.4431  -6.1208  -6.0269

          k = 0.2575-0.1328 0.0000 ( 18109 PWs)   bands (ev):

   -24.5109 -24.0983 -23.6196 -23.2493 -12.1667 -12.1242 -11.6247 -11.5761
    -9.8743  -8.9643  -7.7346  -7.3376  -6.5380  -6.4406  -6.2064  -6.1016

          k = 0.2421 0.1535 0.0000 ( 18132 PWs)   bands (ev):

   -24.5125 -24.1053 -23.6181 -23.2423 -12.0695 -11.9200 -11.8927 -11.6807
    -9.7755  -8.8628  -7.9006  -7.3993  -6.4053  -6.3151  -6.2423  -6.2242

          k = 0.2882-0.7053 0.0000 ( 18147 PWs)   bands (ev):

   -24.2852 -23.9197 -23.8478 -23.4912 -12.1880 -12.1450 -11.6287 -11.4855
    -9.4057  -8.6193  -8.2708  -7.8554  -6.5080  -6.3953  -6.1177  -6.0564

          k = 0.2728-0.4190 0.0000 ( 18128 PWs)   bands (ev):

   -24.2824 -23.9016 -23.8540 -23.5059 -12.2360 -12.2316 -11.4835 -11.4245
    -9.5433  -8.8009  -8.0199  -7.7904  -6.5765  -6.4487  -6.0871  -6.0332

          k =-0.5150 0.2656 0.0000 ( 18184 PWs)   bands (ev):

   -24.2774 -23.9033 -23.8521 -23.5105 -12.2461 -12.2259 -11.4955 -11.4233
    -9.5681  -8.8397  -7.9875  -7.7186  -6.5883  -6.4433  -6.1103  -6.0259

          k =-0.5303 0.5518 0.0000 ( 18128 PWs)   bands (ev):

   -24.2805 -23.9200 -23.8472 -23.4952 -12.2036 -12.1609 -11.6202 -11.4802
    -9.4061  -8.6266  -8.2626  -7.8429  -6.5066  -6.3933  -6.1101  -6.0573

          k =-0.4843-0.3070 0.0000 ( 18166 PWs)   bands (ev):

   -24.2826 -23.9384 -23.8401 -23.4820 -12.1126 -11.9484 -11.8897 -11.5819
    -9.2212  -8.6914  -8.1716  -8.0351  -6.3628  -6.2990  -6.1913  -6.1732

     highest occupied level (ev):    -6.0259

!    total energy              =    -176.32086176 Ry

     total all-electron energy =      -611.708407 Ry
     estimated scf accuracy    <          6.0E-13 Ry

     The total energy is the sum of the following terms:
     one-electron contribution =    -667.76356032 Ry
     hartree contribution      =     341.91808330 Ry
     xc contribution           =     -35.62862463 Ry
     ewald contribution        =     223.50417455 Ry
     one-center paw contrib.   =     -38.35093466 Ry

     convergence has been achieved in   5 iterations

     negative rho (up, down):  4.845E-04 0.000E+00

     Forces acting on atoms (cartesian axes, Ry/au):

     atom    1 type  1   force =    -0.00001906   -0.00000653   -0.00000073
     atom    2 type  1   force =    -0.00000687   -0.00000024   -0.00002127
     atom    3 type  1   force =     0.00000174    0.00000470   -0.00000788
     atom    4 type  1   force =    -0.00000276   -0.00000255    0.00003223
     atom    5 type  1   force =     0.00002876    0.00000090   -0.00000313
     atom    6 type  1   force =     0.00001760   -0.00001014   -0.00000101
     atom    7 type  1   force =    -0.00000423   -0.00000725   -0.00000451
     atom    8 type  1   force =    -0.00003424    0.00001406   -0.00000396
     atom    9 type  2   force =    -0.00000650    0.00000652    0.00002885
     atom   10 type  2   force =     0.00000438   -0.00001602   -0.00002409
     atom   11 type  2   force =    -0.00000039    0.00000207   -0.00000280
     atom   12 type  2   force =     0.00002156    0.00001450    0.00000831

     Total force =     0.000085     Total SCF correction =     0.000001
     Energy error            =      1.2E-08 Ry
     Gradient error          =      3.4E-05 Ry/Bohr

     number of scf cycles    =  80
     number of bfgs steps    =  78

     energy             old  =    -176.3208617468 Ry
     energy             new  =    -176.3208617584 Ry

     CASE: energy            _new < energy            _old

     new trust radius        =       0.0002309882 bohr
     new conv_thr            =            1.0E-12 Ry


ATOMIC_POSITIONS (angstrom)
H             4.4744719031        3.7443695769       11.2233275678
H             5.3213375987        4.3037712261       10.0181592564
H             3.2959515380        1.1569834599        8.0887724031
H             3.1450415606        2.8649763556        9.3217362417
H             3.9918742964        3.4244168118        8.1166060689
H             6.3305945578        3.9819949858        8.0942829716
H             3.0074733132        1.8173393701       11.2513194666
H             2.1358903321        3.1867762702       11.2456832528
O             5.2917170870        4.2807634277       11.0190148794
O             3.1746233404        2.8880321729        8.3208900307
O             5.4263605457        4.3697598338        8.2645968373
O             3.0400503779        2.7989232673       11.0752971017



     Writing config-only to output data dir ./output/f-BH.save/
     NEW-OLD atomic charge density approx. for the potential

     negative rho (up, down):  4.845E-04 0.000E+00

     total cpu time spent up to now is     5643.5 secs

     per-process dynamical memory:   210.7 Mb

     Self-consistent Calculation

     iteration #  1     ecut=    60.00 Ry     beta= 0.70
     Davidson diagonalization with overlap
     ethr =  1.00E-06,  avg # of iterations =  2.0

     Threshold (ethr) on eigenvalues was too large:
     Diagonalizing with lowered threshold

     Davidson diagonalization with overlap
     ethr =  3.07E-11,  avg # of iterations =  4.3

     negative rho (up, down):  4.845E-04 0.000E+00

     total cpu time spent up to now is     5655.2 secs

     total energy              =    -176.32086177 Ry
     estimated scf accuracy    <       0.00000002 Ry

     iteration #  2     ecut=    60.00 Ry     beta= 0.70
     Davidson diagonalization with overlap
     ethr =  4.97E-11,  avg # of iterations =  2.0

     negative rho (up, down):  4.845E-04 0.000E+00

     total cpu time spent up to now is     5660.2 secs

     total energy              =    -176.32086177 Ry
     estimated scf accuracy    <          9.6E-10 Ry

     iteration #  3     ecut=    60.00 Ry     beta= 0.70
     Davidson diagonalization with overlap
     ethr =  2.99E-12,  avg # of iterations =  2.0

     negative rho (up, down):  4.845E-04 0.000E+00

     total cpu time spent up to now is     5665.7 secs

     total energy              =    -176.32086177 Ry
     estimated scf accuracy    <          2.2E-10 Ry

     iteration #  4     ecut=    60.00 Ry     beta= 0.70
     Davidson diagonalization with overlap
     ethr =  6.78E-13,  avg # of iterations =  2.0

     negative rho (up, down):  4.845E-04 0.000E+00

     total cpu time spent up to now is     5671.2 secs

     total energy              =    -176.32086177 Ry
     estimated scf accuracy    <          1.4E-11 Ry

     iteration #  5     ecut=    60.00 Ry     beta= 0.70
     Davidson diagonalization with overlap
     ethr =  1.00E-13,  avg # of iterations =  1.1

     negative rho (up, down):  4.845E-04 0.000E+00

     total cpu time spent up to now is     5675.4 secs

     total energy              =    -176.32086177 Ry
     estimated scf accuracy    <          2.6E-12 Ry

     iteration #  6     ecut=    60.00 Ry     beta= 0.70
     Davidson diagonalization with overlap
     ethr =  1.00E-13,  avg # of iterations =  1.0

     negative rho (up, down):  4.845E-04 0.000E+00

     total cpu time spent up to now is     5679.5 secs

     End of self-consistent calculation

          k = 0.0000 0.0000 0.0000 ( 18047 PWs)   bands (ev):

   -24.6491 -24.2321 -23.4476 -23.0835 -12.0260 -11.8846 -11.8754 -11.8109
   -10.1090  -9.0473  -7.5399  -7.0152  -6.4278  -6.4096  -6.3230  -6.1813

          k =-0.0153 0.2863 0.0000 ( 18132 PWs)   bands (ev):

   -24.5131 -24.1004 -23.6180 -23.2477 -12.1493 -12.1033 -11.6416 -11.5787
    -9.8780  -8.9638  -7.7398  -7.3441  -6.5411  -6.4417  -6.2121  -6.1006

          k = 0.0307-0.5725 0.0000 ( 18166 PWs)   bands (ev):

   -24.2866 -23.9011 -23.8553 -23.5021 -12.2151 -12.2009 -11.5073 -11.4293
    -9.5693  -8.8342  -8.0015  -7.7431  -6.5946  -6.4432  -6.1209  -6.0269

          k = 0.2575-0.1328 0.0000 ( 18109 PWs)   bands (ev):

   -24.5109 -24.0983 -23.6197 -23.2494 -12.1667 -12.1242 -11.6248 -11.5760
    -9.8744  -8.9644  -7.7345  -7.3376  -6.5381  -6.4406  -6.2064  -6.1017

          k = 0.2421 0.1535 0.0000 ( 18132 PWs)   bands (ev):

   -24.5126 -24.1053 -23.6181 -23.2423 -12.0695 -11.9200 -11.8927 -11.6807
    -9.7755  -8.8629  -7.9006  -7.3993  -6.4054  -6.3152  -6.2423  -6.2242

          k = 0.2882-0.7053 0.0000 ( 18147 PWs)   bands (ev):

   -24.2852 -23.9197 -23.8478 -23.4913 -12.1880 -12.1450 -11.6288 -11.4856
    -9.4057  -8.6193  -8.2708  -7.8555  -6.5080  -6.3953  -6.1177  -6.0564

          k = 0.2728-0.4190 0.0000 ( 18128 PWs)   bands (ev):

   -24.2824 -23.9017 -23.8541 -23.5059 -12.2360 -12.2317 -11.4835 -11.4246
    -9.5434  -8.8009  -8.0199  -7.7905  -6.5765  -6.4487  -6.0872  -6.0333

          k =-0.5150 0.2656 0.0000 ( 18184 PWs)   bands (ev):

   -24.2775 -23.9033 -23.8521 -23.5105 -12.2460 -12.2260 -11.4956 -11.4232
    -9.5682  -8.8398  -7.9874  -7.7186  -6.5883  -6.4432  -6.1103  -6.0260

          k =-0.5303 0.5518 0.0000 ( 18128 PWs)   bands (ev):

   -24.2806 -23.9201 -23.8473 -23.4952 -12.2036 -12.1609 -11.6202 -11.4802
    -9.4062  -8.6267  -8.2626  -7.8429  -6.5066  -6.3932  -6.1101  -6.0573

          k =-0.4843-0.3070 0.0000 ( 18166 PWs)   bands (ev):

   -24.2826 -23.9385 -23.8401 -23.4821 -12.1126 -11.9484 -11.8898 -11.5819
    -9.2213  -8.6914  -8.1716  -8.0351  -6.3628  -6.2990  -6.1914  -6.1733

     highest occupied level (ev):    -6.0260

!    total energy              =    -176.32086177 Ry

     total all-electron energy =      -611.708407 Ry
     estimated scf accuracy    <          8.9E-14 Ry

     The total energy is the sum of the following terms:
     one-electron contribution =    -667.76586419 Ry
     hartree contribution      =     341.91921229 Ry
     xc contribution           =     -35.62863529 Ry
     ewald contribution        =     223.50536026 Ry
     one-center paw contrib.   =     -38.35093484 Ry

     convergence has been achieved in   6 iterations

     negative rho (up, down):  4.845E-04 0.000E+00

     Forces acting on atoms (cartesian axes, Ry/au):

     atom    1 type  1   force =    -0.00001888   -0.00000402   -0.00000286
     atom    2 type  1   force =     0.00000043    0.00000028   -0.00002115
     atom    3 type  1   force =    -0.00000024    0.00000636   -0.00001520
     atom    4 type  1   force =    -0.00000692   -0.00000315    0.00003526
     atom    5 type  1   force =     0.00003120    0.00000439   -0.00000838
     atom    6 type  1   force =     0.00001523   -0.00001370    0.00000268
     atom    7 type  1   force =    -0.00000333   -0.00001071   -0.00000599
     atom    8 type  1   force =    -0.00003712    0.00001118   -0.00000320
     atom    9 type  2   force =    -0.00000434    0.00000677    0.00002986
     atom   10 type  2   force =     0.00000789   -0.00001455   -0.00002491
     atom   11 type  2   force =    -0.00000276    0.00000107    0.00000158
     atom   12 type  2   force =     0.00001886    0.00001607    0.00001229

     Total force =     0.000091     Total SCF correction =     0.000001
     Energy error            =      1.5E-08 Ry
     Gradient error          =      3.7E-05 Ry/Bohr

     number of scf cycles    =  81
     number of bfgs steps    =  79

     energy             old  =    -176.3208617584 Ry
     energy             new  =    -176.3208617736 Ry

     CASE: energy            _new < energy            _old

     new trust radius        =       0.0003464823 bohr
     new conv_thr            =            1.0E-12 Ry


ATOMIC_POSITIONS (angstrom)
H             4.4743695259        3.7443816986       11.2233614374
H             5.3211876509        4.3037575284       10.0181442178
H             3.2960488035        1.1569618937        8.0888526848
H             3.1451086261        2.8649374036        9.3217515395
H             3.9920023854        3.4242873927        8.1166275476
H             6.3307182340        3.9819912761        8.0942658312
H             3.0073476099        1.8174208294       11.2513127612
H             2.1358340442        3.1869071971       11.2456097827
O             5.2915839690        4.2808139697       11.0190054699
O             3.1747311691        2.8879327768        8.3209028088
O             5.4264699274        4.3697154952        8.2645783454
O             3.0399845054        2.7989992968       11.0752736515



     Writing config-only to output data dir ./output/f-BH.save/
     NEW-OLD atomic charge density approx. for the potential

     negative rho (up, down):  4.845E-04 0.000E+00

     total cpu time spent up to now is     5692.2 secs

     per-process dynamical memory:   210.2 Mb

     Self-consistent Calculation

     iteration #  1     ecut=    60.00 Ry     beta= 0.70
     Davidson diagonalization with overlap
     ethr =  1.00E-06,  avg # of iterations =  2.0

     Threshold (ethr) on eigenvalues was too large:
     Diagonalizing with lowered threshold

     Davidson diagonalization with overlap
     ethr =  5.98E-11,  avg # of iterations =  4.3

     negative rho (up, down):  4.845E-04 0.000E+00

     total cpu time spent up to now is     5704.0 secs

     total energy              =    -176.32086178 Ry
     estimated scf accuracy    <       0.00000003 Ry

     iteration #  2     ecut=    60.00 Ry     beta= 0.70
     Davidson diagonalization with overlap
     ethr =  9.65E-11,  avg # of iterations =  2.0

     negative rho (up, down):  4.845E-04 0.000E+00

     total cpu time spent up to now is     5709.0 secs

     total energy              =    -176.32086179 Ry
     estimated scf accuracy    <          1.8E-09 Ry

     iteration #  3     ecut=    60.00 Ry     beta= 0.70
     Davidson diagonalization with overlap
     ethr =  5.78E-12,  avg # of iterations =  2.0

     negative rho (up, down):  4.845E-04 0.000E+00

     total cpu time spent up to now is     5714.5 secs

     total energy              =    -176.32086179 Ry
     estimated scf accuracy    <          4.2E-10 Ry

     iteration #  4     ecut=    60.00 Ry     beta= 0.70
     Davidson diagonalization with overlap
     ethr =  1.31E-12,  avg # of iterations =  2.0

     negative rho (up, down):  4.845E-04 0.000E+00

     total cpu time spent up to now is     5720.0 secs

     total energy              =    -176.32086179 Ry
     estimated scf accuracy    <          2.6E-11 Ry

     iteration #  5     ecut=    60.00 Ry     beta= 0.70
     Davidson diagonalization with overlap
     ethr =  1.00E-13,  avg # of iterations =  2.0

     negative rho (up, down):  4.845E-04 0.000E+00

     total cpu time spent up to now is     5725.0 secs

     total energy              =    -176.32086179 Ry
     estimated scf accuracy    <          5.3E-12 Ry

     iteration #  6     ecut=    60.00 Ry     beta= 0.70
     Davidson diagonalization with overlap
     ethr =  1.00E-13,  avg # of iterations =  1.0

     negative rho (up, down):  4.845E-04 0.000E+00

     total cpu time spent up to now is     5729.1 secs

     End of self-consistent calculation

          k = 0.0000 0.0000 0.0000 ( 18047 PWs)   bands (ev):

   -24.6491 -24.2321 -23.4476 -23.0835 -12.0261 -11.8846 -11.8754 -11.8110
   -10.1091  -9.0473  -7.5399  -7.0152  -6.4279  -6.4096  -6.3230  -6.1813

          k =-0.0153 0.2863 0.0000 ( 18132 PWs)   bands (ev):

   -24.5131 -24.1004 -23.6181 -23.2477 -12.1493 -12.1033 -11.6416 -11.5788
    -9.8781  -8.9638  -7.7398  -7.3442  -6.5411  -6.4417  -6.2122  -6.1006

          k = 0.0307-0.5725 0.0000 ( 18166 PWs)   bands (ev):

   -24.2866 -23.9011 -23.8554 -23.5022 -12.2151 -12.2008 -11.5073 -11.4294
    -9.5694  -8.8342  -8.0016  -7.7432  -6.5946  -6.4432  -6.1210  -6.0269

          k = 0.2575-0.1328 0.0000 ( 18109 PWs)   bands (ev):

   -24.5110 -24.0984 -23.6197 -23.2494 -12.1667 -12.1243 -11.6249 -11.5760
    -9.8745  -8.9644  -7.7345  -7.3376  -6.5382  -6.4406  -6.2065  -6.1017

          k = 0.2421 0.1535 0.0000 ( 18132 PWs)   bands (ev):

   -24.5126 -24.1053 -23.6181 -23.2423 -12.0695 -11.9200 -11.8927 -11.6807
    -9.7756  -8.8629  -7.9006  -7.3993  -6.4054  -6.3152  -6.2423  -6.2242

          k = 0.2882-0.7053 0.0000 ( 18147 PWs)   bands (ev):

   -24.2853 -23.9198 -23.8478 -23.4913 -12.1880 -12.1450 -11.6288 -11.4856
    -9.4058  -8.6193  -8.2709  -7.8555  -6.5079  -6.3953  -6.1178  -6.0565

          k = 0.2728-0.4190 0.0000 ( 18128 PWs)   bands (ev):

   -24.2825 -23.9017 -23.8541 -23.5060 -12.2360 -12.2318 -11.4836 -11.4246
    -9.5435  -8.8010  -8.0199  -7.7905  -6.5765  -6.4487  -6.0873  -6.0333

          k =-0.5150 0.2656 0.0000 ( 18184 PWs)   bands (ev):

   -24.2775 -23.9033 -23.8521 -23.5105 -12.2460 -12.2261 -11.4957 -11.4232
    -9.5684  -8.8399  -7.9873  -7.7186  -6.5884  -6.4432  -6.1104  -6.0260

          k =-0.5303 0.5518 0.0000 ( 18128 PWs)   bands (ev):

   -24.2806 -23.9201 -23.8473 -23.4953 -12.2037 -12.1610 -11.6203 -11.4802
    -9.4063  -8.6268  -8.2625  -7.8429  -6.5067  -6.3932  -6.1102  -6.0574

          k =-0.4843-0.3070 0.0000 ( 18166 PWs)   bands (ev):

   -24.2826 -23.9385 -23.8402 -23.4821 -12.1127 -11.9484 -11.8898 -11.5819
    -9.2214  -8.6914  -8.1717  -8.0352  -6.3629  -6.2990  -6.1914  -6.1733

     highest occupied level (ev):    -6.0260

!    total energy              =    -176.32086179 Ry

     total all-electron energy =      -611.708407 Ry
     estimated scf accuracy    <          8.7E-14 Ry

     The total energy is the sum of the following terms:
     one-electron contribution =    -667.76819812 Ry
     hartree contribution      =     341.92032840 Ry
     xc contribution           =     -35.62862906 Ry
     ewald contribution        =     223.50657185 Ry
     one-center paw contrib.   =     -38.35093486 Ry

     convergence has been achieved in   6 iterations

     negative rho (up, down):  4.845E-04 0.000E+00

     Forces acting on atoms (cartesian axes, Ry/au):

     atom    1 type  1   force =    -0.00001590    0.00000057   -0.00000482
     atom    2 type  1   force =     0.00000961    0.00000183   -0.00001584
     atom    3 type  1   force =    -0.00000125    0.00000595   -0.00002269
     atom    4 type  1   force =    -0.00001066   -0.00000238    0.00003284
     atom    5 type  1   force =     0.00003036    0.00000741   -0.00001302
     atom    6 type  1   force =     0.00001087   -0.00001701    0.00000637
     atom    7 type  1   force =    -0.00000318   -0.00001169   -0.00000661
     atom    8 type  1   force =    -0.00003632    0.00000490   -0.00000058
     atom    9 type  2   force =    -0.00000173    0.00000600    0.00002353
     atom   10 type  2   force =     0.00001331   -0.00001015   -0.00002006
     atom   11 type  2   force =    -0.00000471   -0.00000112    0.00000611
     atom   12 type  2   force =     0.00000959    0.00001567    0.00001475

     Total force =     0.000086     Total SCF correction =     0.000000
     Energy error            =      1.6E-08 Ry
     Gradient error          =      3.6E-05 Ry/Bohr

     number of scf cycles    =  82
     number of bfgs steps    =  80

     energy             old  =    -176.3208617736 Ry
     energy             new  =    -176.3208617894 Ry

     CASE: energy            _new < energy            _old

     new trust radius        =       0.0005025140 bohr
     new conv_thr            =            1.0E-12 Ry


ATOMIC_POSITIONS (angstrom)
H             4.4741960321        3.7443825616       11.2233946903
H             5.3209849050        4.3037339061       10.0181332869
H             3.2961796684        1.1569614133        8.0889428870
H             3.1452094741        2.8648769468        9.3217687188
H             3.9922132234        3.4241279203        8.1166563368
H             6.3308989231        3.9820138249        8.0942722507
H             3.0071737902        1.8175070409       11.2512870509
H             2.1357275505        3.1870562073       11.2454894032
O             5.2913837498        4.2808608011       11.0190052642
O             3.1749075180        2.8878113588        8.3209108468
O             5.4266305908        4.3696884287        8.2645793369
O             3.0398810254        2.7990863484       11.0752460053



     Writing config-only to output data dir ./output/f-BH.save/
     NEW-OLD atomic charge density approx. for the potential

     negative rho (up, down):  4.844E-04 0.000E+00

     total cpu time spent up to now is     5741.8 secs

     per-process dynamical memory:   210.7 Mb

     Self-consistent Calculation

     iteration #  1     ecut=    60.00 Ry     beta= 0.70
     Davidson diagonalization with overlap
     ethr =  1.00E-06,  avg # of iterations =  2.0

     Threshold (ethr) on eigenvalues was too large:
     Diagonalizing with lowered threshold

     Davidson diagonalization with overlap
     ethr =  1.22E-10,  avg # of iterations =  4.2

     negative rho (up, down):  4.844E-04 0.000E+00

     total cpu time spent up to now is     5753.5 secs

     total energy              =    -176.32086180 Ry
     estimated scf accuracy    <       0.00000006 Ry

     iteration #  2     ecut=    60.00 Ry     beta= 0.70
     Davidson diagonalization with overlap
     ethr =  1.90E-10,  avg # of iterations =  2.0

     negative rho (up, down):  4.844E-04 0.000E+00

     total cpu time spent up to now is     5758.5 secs

     total energy              =    -176.32086180 Ry
     estimated scf accuracy    <          3.6E-09 Ry

     iteration #  3     ecut=    60.00 Ry     beta= 0.70
     Davidson diagonalization with overlap
     ethr =  1.11E-11,  avg # of iterations =  2.1

     negative rho (up, down):  4.844E-04 0.000E+00

     total cpu time spent up to now is     5764.1 secs

     total energy              =    -176.32086180 Ry
     estimated scf accuracy    <          7.4E-10 Ry

     iteration #  4     ecut=    60.00 Ry     beta= 0.70
     Davidson diagonalization with overlap
     ethr =  2.31E-12,  avg # of iterations =  2.2

     negative rho (up, down):  4.844E-04 0.000E+00

     total cpu time spent up to now is     5769.5 secs

     total energy              =    -176.32086180 Ry
     estimated scf accuracy    <          5.8E-11 Ry

     iteration #  5     ecut=    60.00 Ry     beta= 0.70
     Davidson diagonalization with overlap
     ethr =  1.80E-13,  avg # of iterations =  2.0

     negative rho (up, down):  4.844E-04 0.000E+00

     total cpu time spent up to now is     5774.7 secs

     total energy              =    -176.32086180 Ry
     estimated scf accuracy    <          7.4E-12 Ry

     iteration #  6     ecut=    60.00 Ry     beta= 0.70
     Davidson diagonalization with overlap
     ethr =  1.00E-13,  avg # of iterations =  1.4

     negative rho (up, down):  4.844E-04 0.000E+00

     total cpu time spent up to now is     5779.1 secs

     End of self-consistent calculation

          k = 0.0000 0.0000 0.0000 ( 18047 PWs)   bands (ev):

   -24.6492 -24.2322 -23.4476 -23.0835 -12.0262 -11.8846 -11.8754 -11.8112
   -10.1093  -9.0474  -7.5399  -7.0153  -6.4280  -6.4097  -6.3231  -6.1814

          k =-0.0153 0.2863 0.0000 ( 18132 PWs)   bands (ev):

   -24.5132 -24.1004 -23.6181 -23.2477 -12.1494 -12.1033 -11.6416 -11.5789
    -9.8782  -8.9638  -7.7398  -7.3443  -6.5411  -6.4418  -6.2123  -6.1008

          k = 0.0307-0.5725 0.0000 ( 18166 PWs)   bands (ev):

   -24.2866 -23.9011 -23.8554 -23.5022 -12.2153 -12.2008 -11.5073 -11.4294
    -9.5694  -8.8342  -8.0017  -7.7433  -6.5946  -6.4433  -6.1212  -6.0271

          k = 0.2575-0.1328 0.0000 ( 18109 PWs)   bands (ev):

   -24.5110 -24.0984 -23.6197 -23.2494 -12.1668 -12.1244 -11.6250 -11.5759
    -9.8747  -8.9645  -7.7345  -7.3377  -6.5383  -6.4406  -6.2066  -6.1018

          k = 0.2421 0.1535 0.0000 ( 18132 PWs)   bands (ev):

   -24.5126 -24.1053 -23.6182 -23.2423 -12.0696 -11.9200 -11.8928 -11.6808
    -9.7758  -8.8630  -7.9007  -7.3994  -6.4055  -6.3153  -6.2424  -6.2243

          k = 0.2882-0.7053 0.0000 ( 18147 PWs)   bands (ev):

   -24.2853 -23.9198 -23.8479 -23.4913 -12.1880 -12.1450 -11.6288 -11.4857
    -9.4059  -8.6194  -8.2709  -7.8557  -6.5079  -6.3954  -6.1180  -6.0566

          k = 0.2728-0.4190 0.0000 ( 18128 PWs)   bands (ev):

   -24.2825 -23.9017 -23.8542 -23.5060 -12.2360 -12.2319 -11.4836 -11.4246
    -9.5437  -8.8011  -8.0199  -7.7906  -6.5765  -6.4487  -6.0874  -6.0335

          k =-0.5150 0.2656 0.0000 ( 18184 PWs)   bands (ev):

   -24.2776 -23.9033 -23.8522 -23.5105 -12.2461 -12.2263 -11.4958 -11.4231
    -9.5687  -8.8401  -7.9872  -7.7186  -6.5885  -6.4432  -6.1105  -6.0261

          k =-0.5303 0.5518 0.0000 ( 18128 PWs)   bands (ev):

   -24.2807 -23.9201 -23.8474 -23.4953 -12.2037 -12.1611 -11.6203 -11.4802
    -9.4066  -8.6269  -8.2625  -7.8429  -6.5068  -6.3932  -6.1103  -6.0575

          k =-0.4843-0.3070 0.0000 ( 18166 PWs)   bands (ev):

   -24.2826 -23.9385 -23.8402 -23.4821 -12.1127 -11.9484 -11.8898 -11.5819
    -9.2216  -8.6913  -8.1718  -8.0352  -6.3630  -6.2991  -6.1915  -6.1734

     highest occupied level (ev):    -6.0261

!    total energy              =    -176.32086180 Ry

     total all-electron energy =      -611.708407 Ry
     estimated scf accuracy    <          1.8E-13 Ry

     The total energy is the sum of the following terms:
     one-electron contribution =    -667.77159442 Ry
     hartree contribution      =     341.92193371 Ry
     xc contribution           =     -35.62859620 Ry
     ewald contribution        =     223.50832980 Ry
     one-center paw contrib.   =     -38.35093470 Ry

     convergence has been achieved in   6 iterations

     negative rho (up, down):  4.844E-04 0.000E+00

     Forces acting on atoms (cartesian axes, Ry/au):

     atom    1 type  1   force =    -0.00000823    0.00000828   -0.00000636
     atom    2 type  1   force =     0.00002047    0.00000500   -0.00000341
     atom    3 type  1   force =    -0.00000006    0.00000218   -0.00002906
     atom    4 type  1   force =    -0.00001181    0.00000099    0.00001990
     atom    5 type  1   force =     0.00002295    0.00000860   -0.00001452
     atom    6 type  1   force =     0.00000228   -0.00001843    0.00000942
     atom    7 type  1   force =    -0.00000462   -0.00000781   -0.00000554
     atom    8 type  1   force =    -0.00002900   -0.00000655    0.00000505
     atom    9 type  2   force =     0.00000084    0.00000370    0.00000724
     atom   10 type  2   force =     0.00002010   -0.00000149   -0.00000667
     atom   11 type  2   force =    -0.00000400   -0.00000676    0.00000931
     atom   12 type  2   force =    -0.00000891    0.00001229    0.00001465

     Total force =     0.000073     Total SCF correction =     0.000001
     Energy error            =      1.5E-08 Ry
     Gradient error          =      2.9E-05 Ry/Bohr

     number of scf cycles    =  83
     number of bfgs steps    =  81

     energy             old  =    -176.3208617894 Ry
     energy             new  =    -176.3208618045 Ry

     CASE: energy            _new < energy            _old

     new trust radius        =       0.0002081598 bohr
     new conv_thr            =            1.0E-12 Ry


ATOMIC_POSITIONS (angstrom)
H             4.4741133023        3.7443762768       11.2233952949
H             5.3209214119        4.3037237686       10.0181351974
H             3.2962227102        1.1569784366        8.0889528187
H             3.1452488651        2.8648531650        9.3217736608
H             3.9923152953        3.4240874425        8.1166650917
H             6.3309670997        3.9820353767        8.0942939769
H             3.0071117589        1.8175185518       11.2512681479
H             2.1356643052        3.1870845539       11.2454395752
O             5.2913032330        4.2808644750       11.0190126872
O             3.1749940788        2.8877799875        8.3209085984
O             5.4266926350        4.3696990495        8.2645937791
O             3.0398317556        2.7991056741       11.0752472496



     Writing config-only to output data dir ./output/f-BH.save/
     NEW-OLD atomic charge density approx. for the potential

     negative rho (up, down):  4.844E-04 0.000E+00

     total cpu time spent up to now is     5791.7 secs

     per-process dynamical memory:   210.2 Mb

     Self-consistent Calculation

     iteration #  1     ecut=    60.00 Ry     beta= 0.70
     Davidson diagonalization with overlap
     ethr =  1.00E-06,  avg # of iterations =  2.0

     Threshold (ethr) on eigenvalues was too large:
     Diagonalizing with lowered threshold

     Davidson diagonalization with overlap
     ethr =  1.87E-11,  avg # of iterations =  4.0

     negative rho (up, down):  4.844E-04 0.000E+00

     total cpu time spent up to now is     5803.6 secs

     total energy              =    -176.32086181 Ry
     estimated scf accuracy    <          9.9E-09 Ry

     iteration #  2     ecut=    60.00 Ry     beta= 0.70
     Davidson diagonalization with overlap
     ethr =  3.09E-11,  avg # of iterations =  2.0

     negative rho (up, down):  4.844E-04 0.000E+00

     total cpu time spent up to now is     5808.7 secs

     total energy              =    -176.32086181 Ry
     estimated scf accuracy    <          5.5E-10 Ry

     iteration #  3     ecut=    60.00 Ry     beta= 0.70
     Davidson diagonalization with overlap
     ethr =  1.71E-12,  avg # of iterations =  2.1

     negative rho (up, down):  4.844E-04 0.000E+00

     total cpu time spent up to now is     5814.2 secs

     total energy              =    -176.32086181 Ry
     estimated scf accuracy    <          8.1E-11 Ry

     iteration #  4     ecut=    60.00 Ry     beta= 0.70
     Davidson diagonalization with overlap
     ethr =  2.54E-13,  avg # of iterations =  2.3

     negative rho (up, down):  4.844E-04 0.000E+00

     total cpu time spent up to now is     5819.9 secs

     total energy              =    -176.32086181 Ry
     estimated scf accuracy    <          8.9E-12 Ry

     iteration #  5     ecut=    60.00 Ry     beta= 0.70
     Davidson diagonalization with overlap
     ethr =  1.00E-13,  avg # of iterations =  1.1

     negative rho (up, down):  4.844E-04 0.000E+00

     total cpu time spent up to now is     5824.2 secs

     End of self-consistent calculation

          k = 0.0000 0.0000 0.0000 ( 18047 PWs)   bands (ev):

   -24.6492 -24.2322 -23.4476 -23.0835 -12.0262 -11.8846 -11.8754 -11.8113
   -10.1093  -9.0473  -7.5398  -7.0153  -6.4281  -6.4098  -6.3232  -6.1815

          k =-0.0153 0.2863 0.0000 ( 18132 PWs)   bands (ev):

   -24.5132 -24.1004 -23.6181 -23.2477 -12.1495 -12.1033 -11.6416 -11.5789
    -9.8783  -8.9638  -7.7398  -7.3443  -6.5412  -6.4419  -6.2124  -6.1008

          k = 0.0307-0.5725 0.0000 ( 18166 PWs)   bands (ev):

   -24.2866 -23.9011 -23.8554 -23.5022 -12.2154 -12.2009 -11.5073 -11.4295
    -9.5695  -8.8342  -8.0017  -7.7434  -6.5946  -6.4433  -6.1213  -6.0271

          k = 0.2575-0.1328 0.0000 ( 18109 PWs)   bands (ev):

   -24.5110 -24.0984 -23.6197 -23.2494 -12.1669 -12.1244 -11.6250 -11.5759
    -9.8748  -8.9645  -7.7345  -7.3377  -6.5383  -6.4406  -6.2066  -6.1019

          k = 0.2421 0.1535 0.0000 ( 18132 PWs)   bands (ev):

   -24.5126 -24.1053 -23.6182 -23.2423 -12.0697 -11.9201 -11.8928 -11.6808
    -9.7759  -8.8630  -7.9006  -7.3994  -6.4056  -6.3154  -6.2425  -6.2243

          k = 0.2882-0.7053 0.0000 ( 18147 PWs)   bands (ev):

   -24.2852 -23.9198 -23.8479 -23.4914 -12.1881 -12.1451 -11.6288 -11.4857
    -9.4059  -8.6194  -8.2710  -7.8557  -6.5080  -6.3954  -6.1181  -6.0566

          k = 0.2728-0.4190 0.0000 ( 18128 PWs)   bands (ev):

   -24.2825 -23.9016 -23.8542 -23.5060 -12.2361 -12.2320 -11.4836 -11.4246
    -9.5438  -8.8011  -8.0199  -7.7906  -6.5765  -6.4488  -6.0875  -6.0335

          k =-0.5150 0.2656 0.0000 ( 18184 PWs)   bands (ev):

   -24.2777 -23.9032 -23.8523 -23.5104 -12.2462 -12.2263 -11.4958 -11.4230
    -9.5688  -8.8402  -7.9872  -7.7186  -6.5886  -6.4432  -6.1105  -6.0262

          k =-0.5303 0.5518 0.0000 ( 18128 PWs)   bands (ev):

   -24.2807 -23.9201 -23.8474 -23.4953 -12.2038 -12.1612 -11.6203 -11.4802
    -9.4067  -8.6269  -8.2625  -7.8429  -6.5069  -6.3932  -6.1103  -6.0575

          k =-0.4843-0.3070 0.0000 ( 18166 PWs)   bands (ev):

   -24.2826 -23.9385 -23.8402 -23.4822 -12.1128 -11.9485 -11.8899 -11.5819
    -9.2217  -8.6913  -8.1719  -8.0353  -6.3630  -6.2991  -6.1916  -6.1734

     highest occupied level (ev):    -6.0262

!    total energy              =    -176.32086181 Ry

     total all-electron energy =      -611.708407 Ry
     estimated scf accuracy    <          5.2E-13 Ry

     The total energy is the sum of the following terms:
     one-electron contribution =    -667.77230127 Ry
     hartree contribution      =     341.92224347 Ry
     xc contribution           =     -35.62856709 Ry
     ewald contribution        =     223.50869765 Ry
     one-center paw contrib.   =     -38.35093457 Ry

     convergence has been achieved in   5 iterations

     negative rho (up, down):  4.844E-04 0.000E+00

     Forces acting on atoms (cartesian axes, Ry/au):

     atom    1 type  1   force =    -0.00000339    0.00001184   -0.00000618
     atom    2 type  1   force =     0.00002247    0.00000682    0.00000455
     atom    3 type  1   force =     0.00000258   -0.00000278   -0.00002778
     atom    4 type  1   force =    -0.00000813    0.00000406    0.00000771
     atom    5 type  1   force =     0.00001558    0.00000653   -0.00001034
     atom    6 type  1   force =    -0.00000132   -0.00001658    0.00000847
     atom    7 type  1   force =    -0.00000650   -0.00000189   -0.00000379
     atom    8 type  1   force =    -0.00002185   -0.00001240    0.00000843
     atom    9 type  2   force =     0.00000101    0.00000186   -0.00000345
     atom   10 type  2   force =     0.00002006    0.00000261    0.00000276
     atom   11 type  2   force =    -0.00000203   -0.00000860    0.00000818
     atom   12 type  2   force =    -0.00001847    0.00000852    0.00001143

     Total force =     0.000066     Total SCF correction =     0.000001
     Energy error            =      7.0E-09 Ry
     Gradient error          =      2.8E-05 Ry/Bohr

     number of scf cycles    =  84
     number of bfgs steps    =  82

     energy             old  =    -176.3208618045 Ry
     energy             new  =    -176.3208618115 Ry

     CASE: energy            _new < energy            _old

     new trust radius        =       0.0002289758 bohr
     new conv_thr            =            1.0E-12 Ry


ATOMIC_POSITIONS (angstrom)
H             4.4740253197        3.7443825366       11.2233882739
H             5.3208819336        4.3037205277       10.0181447590
H             3.2962561897        1.1569927352        8.0889305532
H             3.1452820720        2.8648295586        9.3217764240
H             3.9924328615        3.4240581601        8.1166667047
H             6.3310258559        3.9820470907        8.0943299926
H             3.0070586097        1.8175229635       11.2512434063
H             2.1355786568        3.1870940720       11.2453964747
O             5.2912290627        4.2808697249       11.0190278110
O             3.1750964665        2.8877529659        8.3209020047
O             5.4267483738        4.3697123812        8.2646178236
O             3.0397710489        2.7991240417       11.0752618502



     Writing config-only to output data dir ./output/f-BH.save/
     NEW-OLD atomic charge density approx. for the potential

     negative rho (up, down):  4.844E-04 0.000E+00

     total cpu time spent up to now is     5836.8 secs

     per-process dynamical memory:   210.7 Mb

     Self-consistent Calculation

     iteration #  1     ecut=    60.00 Ry     beta= 0.70
     Davidson diagonalization with overlap
     ethr =  1.00E-06,  avg # of iterations =  2.0

     Threshold (ethr) on eigenvalues was too large:
     Diagonalizing with lowered threshold

     Davidson diagonalization with overlap
     ethr =  2.02E-11,  avg # of iterations =  4.0

     negative rho (up, down):  4.844E-04 0.000E+00

     total cpu time spent up to now is     5848.8 secs

     total energy              =    -176.32086182 Ry
     estimated scf accuracy    <       0.00000001 Ry

     iteration #  2     ecut=    60.00 Ry     beta= 0.70
     Davidson diagonalization with overlap
     ethr =  3.60E-11,  avg # of iterations =  2.0

     negative rho (up, down):  4.844E-04 0.000E+00

     total cpu time spent up to now is     5854.0 secs

     total energy              =    -176.32086182 Ry
     estimated scf accuracy    <          6.1E-10 Ry

     iteration #  3     ecut=    60.00 Ry     beta= 0.70
     Davidson diagonalization with overlap
     ethr =  1.89E-12,  avg # of iterations =  2.0

     negative rho (up, down):  4.844E-04 0.000E+00

     total cpu time spent up to now is     5859.3 secs

     total energy              =    -176.32086182 Ry
     estimated scf accuracy    <          6.7E-11 Ry

     iteration #  4     ecut=    60.00 Ry     beta= 0.70
     Davidson diagonalization with overlap
     ethr =  2.11E-13,  avg # of iterations =  2.1

     negative rho (up, down):  4.844E-04 0.000E+00

     total cpu time spent up to now is     5864.9 secs

     total energy              =    -176.32086182 Ry
     estimated scf accuracy    <          5.6E-12 Ry

     iteration #  5     ecut=    60.00 Ry     beta= 0.70
     Davidson diagonalization with overlap
     ethr =  1.00E-13,  avg # of iterations =  1.0

     negative rho (up, down):  4.844E-04 0.000E+00

     total cpu time spent up to now is     5869.1 secs

     End of self-consistent calculation

          k = 0.0000 0.0000 0.0000 ( 18047 PWs)   bands (ev):

   -24.6492 -24.2322 -23.4476 -23.0835 -12.0262 -11.8847 -11.8754 -11.8114
   -10.1094  -9.0473  -7.5398  -7.0152  -6.4282  -6.4098  -6.3232  -6.1815

          k =-0.0153 0.2863 0.0000 ( 18132 PWs)   bands (ev):

   -24.5132 -24.1004 -23.6180 -23.2477 -12.1495 -12.1034 -11.6416 -11.5789
    -9.8783  -8.9638  -7.7398  -7.3443  -6.5412  -6.4419  -6.2125  -6.1009

          k = 0.0307-0.5725 0.0000 ( 18166 PWs)   bands (ev):

   -24.2866 -23.9010 -23.8554 -23.5022 -12.2154 -12.2009 -11.5073 -11.4294
    -9.5695  -8.8342  -8.0017  -7.7435  -6.5946  -6.4433  -6.1213  -6.0272

          k = 0.2575-0.1328 0.0000 ( 18109 PWs)   bands (ev):

   -24.5110 -24.0984 -23.6196 -23.2493 -12.1670 -12.1245 -11.6250 -11.5759
    -9.8749  -8.9645  -7.7344  -7.3377  -6.5383  -6.4406  -6.2067  -6.1019

          k = 0.2421 0.1535 0.0000 ( 18132 PWs)   bands (ev):

   -24.5126 -24.1053 -23.6181 -23.2423 -12.0697 -11.9201 -11.8929 -11.6809
    -9.7759  -8.8629  -7.9006  -7.3994  -6.4056  -6.3154  -6.2425  -6.2244

          k = 0.2882-0.7053 0.0000 ( 18147 PWs)   bands (ev):

   -24.2852 -23.9197 -23.8479 -23.4913 -12.1882 -12.1452 -11.6288 -11.4857
    -9.4059  -8.6193  -8.2710  -7.8557  -6.5080  -6.3954  -6.1181  -6.0567

          k = 0.2728-0.4190 0.0000 ( 18128 PWs)   bands (ev):

   -24.2825 -23.9016 -23.8542 -23.5059 -12.2361 -12.2321 -11.4836 -11.4246
    -9.5439  -8.8011  -8.0199  -7.7906  -6.5766  -6.4488  -6.0875  -6.0336

          k =-0.5150 0.2656 0.0000 ( 18184 PWs)   bands (ev):

   -24.2777 -23.9031 -23.8523 -23.5104 -12.2462 -12.2264 -11.4958 -11.4230
    -9.5690  -8.8402  -7.9871  -7.7185  -6.5886  -6.4432  -6.1106  -6.0262

          k =-0.5303 0.5518 0.0000 ( 18128 PWs)   bands (ev):

   -24.2807 -23.9200 -23.8474 -23.4952 -12.2039 -12.1612 -11.6203 -11.4802
    -9.4068  -8.6270  -8.2625  -7.8429  -6.5069  -6.3932  -6.1104  -6.0576

          k =-0.4843-0.3070 0.0000 ( 18166 PWs)   bands (ev):

   -24.2826 -23.9384 -23.8402 -23.4821 -12.1128 -11.9485 -11.8899 -11.5820
    -9.2217  -8.6913  -8.1719  -8.0352  -6.3631  -6.2992  -6.1916  -6.1735

     highest occupied level (ev):    -6.0262

!    total energy              =    -176.32086182 Ry

     total all-electron energy =      -611.708407 Ry
     estimated scf accuracy    <          1.8E-13 Ry

     The total energy is the sum of the following terms:
     one-electron contribution =    -667.77190256 Ry
     hartree contribution      =     341.92199555 Ry
     xc contribution           =     -35.62852283 Ry
     ewald contribution        =     223.50850203 Ry
     one-center paw contrib.   =     -38.35093401 Ry

     convergence has been achieved in   5 iterations

     negative rho (up, down):  4.844E-04 0.000E+00

     Forces acting on atoms (cartesian axes, Ry/au):

     atom    1 type  1   force =     0.00000177    0.00001516   -0.00000542
     atom    2 type  1   force =     0.00002180    0.00000886    0.00001367
     atom    3 type  1   force =     0.00000732   -0.00001034   -0.00002240
     atom    4 type  1   force =     0.00000041    0.00000860   -0.00000956
     atom    5 type  1   force =     0.00000409    0.00000191   -0.00000060
     atom    6 type  1   force =    -0.00000517   -0.00001187    0.00000561
     atom    7 type  1   force =    -0.00000982    0.00000719   -0.00000063
     atom    8 type  1   force =    -0.00001158   -0.00001867    0.00001250
     atom    9 type  2   force =    -0.00000033   -0.00000100   -0.00001662
     atom   10 type  2   force =     0.00001633    0.00000674    0.00001347
     atom   11 type  2   force =     0.00000287   -0.00001003    0.00000475
     atom   12 type  2   force =    -0.00002768    0.00000344    0.00000524

     Total force =     0.000067     Total SCF correction =     0.000001
     Energy error            =      9.9E-09 Ry
     Gradient error          =      2.8E-05 Ry/Bohr

     number of scf cycles    =  85
     number of bfgs steps    =  83

     energy             old  =    -176.3208618115 Ry
     energy             new  =    -176.3208618215 Ry

     CASE: energy            _new < energy            _old

     new trust radius        =       0.0003205887 bohr
     new conv_thr            =            1.0E-12 Ry


ATOMIC_POSITIONS (angstrom)
H             4.4739121208        3.7444116354       11.2233711655
H             5.3208523251        4.3037234408       10.0181547916
H             3.2963115105        1.1569933978        8.0888820782
H             3.1453214206        2.8648121253        9.3217846454
H             3.9926002051        3.4240305703        8.1166706347
H             6.3310995876        3.9820353111        8.0943799526
H             3.0069775398        1.8175304242       11.2512054147
H             2.1354371940        3.1870953826       11.2453601389
O             5.2911365287        4.2808869101       11.0190409570
O             3.1752508379        2.8877199567        8.3209006325
O             5.4268248914        4.3697161536        8.2646493978
O             3.0396622893        2.7991514501       11.0752862690



     Writing config-only to output data dir ./output/f-BH.save/
     NEW-OLD atomic charge density approx. for the potential

     negative rho (up, down):  4.844E-04 0.000E+00

     total cpu time spent up to now is     5881.7 secs

     per-process dynamical memory:   210.2 Mb

     Self-consistent Calculation

     iteration #  1     ecut=    60.00 Ry     beta= 0.70
     Davidson diagonalization with overlap
     ethr =  1.00E-06,  avg # of iterations =  2.0

     Threshold (ethr) on eigenvalues was too large:
     Diagonalizing with lowered threshold

     Davidson diagonalization with overlap
     ethr =  4.53E-11,  avg # of iterations =  3.9

     negative rho (up, down):  4.844E-04 0.000E+00

     total cpu time spent up to now is     5893.6 secs

     total energy              =    -176.32086183 Ry
     estimated scf accuracy    <       0.00000002 Ry

     iteration #  2     ecut=    60.00 Ry     beta= 0.70
     Davidson diagonalization with overlap
     ethr =  7.63E-11,  avg # of iterations =  2.0

     negative rho (up, down):  4.844E-04 0.000E+00

     total cpu time spent up to now is     5898.7 secs

     total energy              =    -176.32086183 Ry
     estimated scf accuracy    <          1.2E-09 Ry

     iteration #  3     ecut=    60.00 Ry     beta= 0.70
     Davidson diagonalization with overlap
     ethr =  3.90E-12,  avg # of iterations =  2.0

     negative rho (up, down):  4.844E-04 0.000E+00

     total cpu time spent up to now is     5904.1 secs

     total energy              =    -176.32086183 Ry
     estimated scf accuracy    <          1.8E-10 Ry

     iteration #  4     ecut=    60.00 Ry     beta= 0.70
     Davidson diagonalization with overlap
     ethr =  5.56E-13,  avg # of iterations =  2.3

     negative rho (up, down):  4.844E-04 0.000E+00

     total cpu time spent up to now is     5910.1 secs

     total energy              =    -176.32086183 Ry
     estimated scf accuracy    <          2.4E-11 Ry

     iteration #  5     ecut=    60.00 Ry     beta= 0.70
     Davidson diagonalization with overlap
     ethr =  1.00E-13,  avg # of iterations =  2.0

     negative rho (up, down):  4.844E-04 0.000E+00

     total cpu time spent up to now is     5915.0 secs

     End of self-consistent calculation

          k = 0.0000 0.0000 0.0000 ( 18047 PWs)   bands (ev):

   -24.6491 -24.2321 -23.4475 -23.0834 -12.0263 -11.8847 -11.8755 -11.8116
   -10.1094  -9.0472  -7.5397  -7.0152  -6.4282  -6.4099  -6.3232  -6.1816

          k =-0.0153 0.2863 0.0000 ( 18132 PWs)   bands (ev):

   -24.5131 -24.1004 -23.6180 -23.2477 -12.1497 -12.1035 -11.6417 -11.5790
    -9.8783  -8.9637  -7.7398  -7.3443  -6.5412  -6.4419  -6.2125  -6.1010

          k = 0.0307-0.5725 0.0000 ( 18166 PWs)   bands (ev):

   -24.2865 -23.9009 -23.8554 -23.5022 -12.2156 -12.2010 -11.5074 -11.4295
    -9.5694  -8.8341  -8.0017  -7.7435  -6.5946  -6.4433  -6.1214  -6.0273

          k = 0.2575-0.1328 0.0000 ( 18109 PWs)   bands (ev):

   -24.5110 -24.0984 -23.6196 -23.2493 -12.1671 -12.1246 -11.6251 -11.5760
    -9.8750  -8.9645  -7.7343  -7.3377  -6.5384  -6.4406  -6.2067  -6.1020

          k = 0.2421 0.1535 0.0000 ( 18132 PWs)   bands (ev):

   -24.5126 -24.1053 -23.6181 -23.2423 -12.0698 -11.9202 -11.8930 -11.6810
    -9.7759  -8.8628  -7.9006  -7.3994  -6.4057  -6.3155  -6.2425  -6.2244

          k = 0.2882-0.7053 0.0000 ( 18147 PWs)   bands (ev):

   -24.2852 -23.9197 -23.8479 -23.4913 -12.1883 -12.1453 -11.6289 -11.4858
    -9.4059  -8.6193  -8.2710  -7.8558  -6.5080  -6.3955  -6.1182  -6.0568

          k = 0.2728-0.4190 0.0000 ( 18128 PWs)   bands (ev):

   -24.2825 -23.9015 -23.8542 -23.5059 -12.2363 -12.2322 -11.4837 -11.4246
    -9.5439  -8.8011  -8.0198  -7.7906  -6.5766  -6.4488  -6.0876  -6.0336

          k =-0.5150 0.2656 0.0000 ( 18184 PWs)   bands (ev):

   -24.2776 -23.9031 -23.8523 -23.5103 -12.2463 -12.2265 -11.4958 -11.4230
    -9.5691  -8.8403  -7.9870  -7.7185  -6.5886  -6.4432  -6.1106  -6.0263

          k =-0.5303 0.5518 0.0000 ( 18128 PWs)   bands (ev):

   -24.2806 -23.9199 -23.8474 -23.4952 -12.2039 -12.1613 -11.6203 -11.4802
    -9.4069  -8.6270  -8.2624  -7.8428  -6.5070  -6.3933  -6.1104  -6.0576

          k =-0.4843-0.3070 0.0000 ( 18166 PWs)   bands (ev):

   -24.2825 -23.9384 -23.8402 -23.4821 -12.1129 -11.9486 -11.8900 -11.5821
    -9.2217  -8.6912  -8.1719  -8.0352  -6.3631  -6.2992  -6.1916  -6.1735

     highest occupied level (ev):    -6.0263

!    total energy              =    -176.32086183 Ry

     total all-electron energy =      -611.708407 Ry
     estimated scf accuracy    <          9.8E-13 Ry

     The total energy is the sum of the following terms:
     one-electron contribution =    -667.77174355 Ry
     hartree contribution      =     341.92187061 Ry
     xc contribution           =     -35.62847726 Ry
     ewald contribution        =     223.50842153 Ry
     one-center paw contrib.   =     -38.35093317 Ry

     convergence has been achieved in   5 iterations

     negative rho (up, down):  4.844E-04 0.000E+00

     Forces acting on atoms (cartesian axes, Ry/au):

     atom    1 type  1   force =     0.00000492    0.00001743   -0.00000493
     atom    2 type  1   force =     0.00001849    0.00001081    0.00002055
     atom    3 type  1   force =     0.00001422   -0.00001994   -0.00001315
     atom    4 type  1   force =     0.00001440    0.00001426   -0.00002991
     atom    5 type  1   force =    -0.00001058   -0.00000467    0.00001506
     atom    6 type  1   force =    -0.00000676   -0.00000495    0.00000048
     atom    7 type  1   force =    -0.00001439    0.00001887    0.00000403
     atom    8 type  1   force =    -0.00000055   -0.00002423    0.00001695
     atom    9 type  2   force =    -0.00000180   -0.00000374   -0.00002720
     atom   10 type  2   force =     0.00000531    0.00000975    0.00002206
     atom   11 type  2   force =     0.00000862   -0.00000984   -0.00000070
     atom   12 type  2   force =    -0.00003187   -0.00000376   -0.00000324

     Total force =     0.000088     Total SCF correction =     0.000001
     Energy error            =      1.3E-08 Ry
     Gradient error          =      3.2E-05 Ry/Bohr

     number of scf cycles    =  86
     number of bfgs steps    =  84

     energy             old  =    -176.3208618215 Ry
     energy             new  =    -176.3208618341 Ry

     CASE: energy            _new < energy            _old

     new trust radius        =       0.0002699001 bohr
     new conv_thr            =            1.0E-12 Ry


ATOMIC_POSITIONS (angstrom)
H             4.4738331773        3.7444719097       11.2233595108
H             5.3208418075        4.3037381540       10.0181543558
H             3.2963798699        1.1569511232        8.0888375539
H             3.1453506595        2.8648157295        9.3217980005
H             3.9927382330        3.4239946194        8.1166780369
H             6.3311607779        3.9819750020        8.0944038889
H             3.0068878917        1.8175634480       11.2511786216
H             2.1353015197        3.1871137012       11.2453577125
O             5.2910673871        4.2809322739       11.0190383069
O             3.1753858507        2.8876767656        8.3209116649
O             5.4268938035        4.3696776314        8.2646601572
O             3.0395454730        2.7991964003       11.0753082680



     Writing config-only to output data dir ./output/f-BH.save/
     NEW-OLD atomic charge density approx. for the potential

     negative rho (up, down):  4.844E-04 0.000E+00

     total cpu time spent up to now is     5927.7 secs

     per-process dynamical memory:   210.3 Mb

     Self-consistent Calculation

     iteration #  1     ecut=    60.00 Ry     beta= 0.70
     Davidson diagonalization with overlap
     ethr =  1.00E-06,  avg # of iterations =  2.0

     Threshold (ethr) on eigenvalues was too large:
     Diagonalizing with lowered threshold

     Davidson diagonalization with overlap
     ethr =  4.26E-11,  avg # of iterations =  4.1

     negative rho (up, down):  4.844E-04 0.000E+00

     total cpu time spent up to now is     5939.8 secs

     total energy              =    -176.32086184 Ry
     estimated scf accuracy    <       0.00000002 Ry

     iteration #  2     ecut=    60.00 Ry     beta= 0.70
     Davidson diagonalization with overlap
     ethr =  7.07E-11,  avg # of iterations =  2.0

     negative rho (up, down):  4.844E-04 0.000E+00

     total cpu time spent up to now is     5945.1 secs

     total energy              =    -176.32086185 Ry
     estimated scf accuracy    <          1.4E-09 Ry

     iteration #  3     ecut=    60.00 Ry     beta= 0.70
     Davidson diagonalization with overlap
     ethr =  4.34E-12,  avg # of iterations =  2.0

     negative rho (up, down):  4.844E-04 0.000E+00

     total cpu time spent up to now is     5950.6 secs

     total energy              =    -176.32086185 Ry
     estimated scf accuracy    <          3.6E-10 Ry

     iteration #  4     ecut=    60.00 Ry     beta= 0.70
     Davidson diagonalization with overlap
     ethr =  1.14E-12,  avg # of iterations =  2.0

     negative rho (up, down):  4.844E-04 0.000E+00

     total cpu time spent up to now is     5956.0 secs

     total energy              =    -176.32086185 Ry
     estimated scf accuracy    <          1.6E-11 Ry

     iteration #  5     ecut=    60.00 Ry     beta= 0.70
     Davidson diagonalization with overlap
     ethr =  1.00E-13,  avg # of iterations =  2.0

     negative rho (up, down):  4.844E-04 0.000E+00

     total cpu time spent up to now is     5961.0 secs

     total energy              =    -176.32086185 Ry
     estimated scf accuracy    <          4.8E-12 Ry

     iteration #  6     ecut=    60.00 Ry     beta= 0.70
     Davidson diagonalization with overlap
     ethr =  1.00E-13,  avg # of iterations =  1.0

     negative rho (up, down):  4.844E-04 0.000E+00

     total cpu time spent up to now is     5965.2 secs

     End of self-consistent calculation

          k = 0.0000 0.0000 0.0000 ( 18047 PWs)   bands (ev):

   -24.6491 -24.2321 -23.4475 -23.0834 -12.0263 -11.8847 -11.8756 -11.8118
   -10.1093  -9.0471  -7.5397  -7.0152  -6.4283  -6.4099  -6.3232  -6.1816

          k =-0.0153 0.2863 0.0000 ( 18132 PWs)   bands (ev):

   -24.5131 -24.1004 -23.6179 -23.2476 -12.1497 -12.1036 -11.6417 -11.5791
    -9.8782  -8.9636  -7.7397  -7.3443  -6.5412  -6.4419  -6.2125  -6.1010

          k = 0.0307-0.5725 0.0000 ( 18166 PWs)   bands (ev):

   -24.2865 -23.9009 -23.8554 -23.5022 -12.2157 -12.2011 -11.5074 -11.4296
    -9.5694  -8.8340  -8.0017  -7.7435  -6.5946  -6.4432  -6.1214  -6.0273

          k = 0.2575-0.1328 0.0000 ( 18109 PWs)   bands (ev):

   -24.5110 -24.0983 -23.6195 -23.2493 -12.1671 -12.1246 -11.6252 -11.5760
    -9.8750  -8.9645  -7.7343  -7.3376  -6.5384  -6.4407  -6.2068  -6.1020

          k = 0.2421 0.1535 0.0000 ( 18132 PWs)   bands (ev):

   -24.5125 -24.1053 -23.6181 -23.2422 -12.0698 -11.9202 -11.8931 -11.6811
    -9.7759  -8.8628  -7.9005  -7.3994  -6.4057  -6.3155  -6.2425  -6.2244

          k = 0.2882-0.7053 0.0000 ( 18147 PWs)   bands (ev):

   -24.2851 -23.9196 -23.8478 -23.4913 -12.1883 -12.1454 -11.6289 -11.4858
    -9.4058  -8.6191  -8.2710  -7.8558  -6.5080  -6.3955  -6.1182  -6.0568

          k = 0.2728-0.4190 0.0000 ( 18128 PWs)   bands (ev):

   -24.2825 -23.9015 -23.8542 -23.5059 -12.2363 -12.2323 -11.4837 -11.4246
    -9.5439  -8.8011  -8.0197  -7.7906  -6.5766  -6.4488  -6.0876  -6.0336

          k =-0.5150 0.2656 0.0000 ( 18184 PWs)   bands (ev):

   -24.2776 -23.9030 -23.8523 -23.5103 -12.2464 -12.2266 -11.4959 -11.4230
    -9.5691  -8.8404  -7.9869  -7.7184  -6.5886  -6.4432  -6.1106  -6.0262

          k =-0.5303 0.5518 0.0000 ( 18128 PWs)   bands (ev):

   -24.2806 -23.9199 -23.8473 -23.4952 -12.2040 -12.1614 -11.6204 -11.4803
    -9.4069  -8.6269  -8.2623  -7.8428  -6.5070  -6.3933  -6.1104  -6.0576

          k =-0.4843-0.3070 0.0000 ( 18166 PWs)   bands (ev):

   -24.2825 -23.9384 -23.8402 -23.4821 -12.1129 -11.9486 -11.8901 -11.5822
    -9.2217  -8.6911  -8.1719  -8.0352  -6.3632  -6.2992  -6.1916  -6.1735

     highest occupied level (ev):    -6.0262

!    total energy              =    -176.32086185 Ry

     total all-electron energy =      -611.708407 Ry
     estimated scf accuracy    <          2.0E-13 Ry

     The total energy is the sum of the following terms:
     one-electron contribution =    -667.77182821 Ry
     hartree contribution      =     341.92189403 Ry
     xc contribution           =     -35.62846019 Ry
     ewald contribution        =     223.50846482 Ry
     one-center paw contrib.   =     -38.35093230 Ry

     convergence has been achieved in   6 iterations

     negative rho (up, down):  4.844E-04 0.000E+00

     Forces acting on atoms (cartesian axes, Ry/au):

     atom    1 type  1   force =     0.00000256    0.00001688   -0.00000598
     atom    2 type  1   force =     0.00001468    0.00001101    0.00001954
     atom    3 type  1   force =     0.00001847   -0.00002549   -0.00000577
     atom    4 type  1   force =     0.00002484    0.00001620   -0.00003849
     atom    5 type  1   force =    -0.00001873   -0.00000852    0.00002641
     atom    6 type  1   force =    -0.00000519    0.00000004   -0.00000298
     atom    7 type  1   force =    -0.00001649    0.00002382    0.00000729
     atom    8 type  1   force =     0.00000386   -0.00002442    0.00001836
     atom    9 type  2   force =    -0.00000305   -0.00000490   -0.00002643
     atom   10 type  2   force =    -0.00000703    0.00000948    0.00002100
     atom   11 type  2   force =     0.00001266   -0.00000673   -0.00000465
     atom   12 type  2   force =    -0.00002657   -0.00000736   -0.00000829

     Total force =     0.000099     Total SCF correction =     0.000001
     Energy error            =      1.3E-08 Ry
     Gradient error          =      3.8E-05 Ry/Bohr

     number of scf cycles    =  87
     number of bfgs steps    =  85

     energy             old  =    -176.3208618341 Ry
     energy             new  =    -176.3208618469 Ry

     CASE: energy            _new < energy            _old

     new trust radius        =       0.0002968901 bohr
     new conv_thr            =            1.0E-12 Ry


ATOMIC_POSITIONS (angstrom)
H             4.4737539330        3.7445493497       11.2233483443
H             5.3208238071        4.3037563637       10.0181419302
H             3.2964822583        1.1568821108        8.0888064431
H             3.1453898847        2.8648350099        9.3218185085
H             3.9928823109        3.4239438845        8.1166995947
H             6.3312391945        3.9818875110        8.0944108431
H             3.0067634181        1.8176174852       11.2511554559
H             2.1351490685        3.1871497880       11.2453695071
O             5.2909881348        4.2809954449       11.0190200359
O             3.1755301417        2.8876222553        8.3209358464
O             5.4269823622        4.3696116612        8.2646559870
O             3.0394019369        2.7992558940       11.0753235818



     Writing config-only to output data dir ./output/f-BH.save/
     NEW-OLD atomic charge density approx. for the potential

     negative rho (up, down):  4.844E-04 0.000E+00

     total cpu time spent up to now is     5977.8 secs

     per-process dynamical memory:   210.2 Mb

     Self-consistent Calculation

     iteration #  1     ecut=    60.00 Ry     beta= 0.70
     Davidson diagonalization with overlap
     ethr =  1.00E-06,  avg # of iterations =  2.0

     Threshold (ethr) on eigenvalues was too large:
     Diagonalizing with lowered threshold

     Davidson diagonalization with overlap
     ethr =  6.18E-11,  avg # of iterations =  4.2

     negative rho (up, down):  4.844E-04 0.000E+00

     total cpu time spent up to now is     5989.6 secs

     total energy              =    -176.32086186 Ry
     estimated scf accuracy    <       0.00000003 Ry

     iteration #  2     ecut=    60.00 Ry     beta= 0.70
     Davidson diagonalization with overlap
     ethr =  1.03E-10,  avg # of iterations =  2.0

     negative rho (up, down):  4.844E-04 0.000E+00

     total cpu time spent up to now is     5994.9 secs

     total energy              =    -176.32086186 Ry
     estimated scf accuracy    <          2.0E-09 Ry

     iteration #  3     ecut=    60.00 Ry     beta= 0.70
     Davidson diagonalization with overlap
     ethr =  6.32E-12,  avg # of iterations =  2.0

     negative rho (up, down):  4.844E-04 0.000E+00

     total cpu time spent up to now is     6000.5 secs

     total energy              =    -176.32086186 Ry
     estimated scf accuracy    <          5.6E-10 Ry

     iteration #  4     ecut=    60.00 Ry     beta= 0.70
     Davidson diagonalization with overlap
     ethr =  1.74E-12,  avg # of iterations =  2.0

     negative rho (up, down):  4.844E-04 0.000E+00

     total cpu time spent up to now is     6006.0 secs

     total energy              =    -176.32086186 Ry
     estimated scf accuracy    <          2.4E-11 Ry

     iteration #  5     ecut=    60.00 Ry     beta= 0.70
     Davidson diagonalization with overlap
     ethr =  1.00E-13,  avg # of iterations =  2.2

     negative rho (up, down):  4.844E-04 0.000E+00

     total cpu time spent up to now is     6011.5 secs

     total energy              =    -176.32086186 Ry
     estimated scf accuracy    <          8.4E-12 Ry

     iteration #  6     ecut=    60.00 Ry     beta= 0.70
     Davidson diagonalization with overlap
     ethr =  1.00E-13,  avg # of iterations =  1.0

     negative rho (up, down):  4.844E-04 0.000E+00

     total cpu time spent up to now is     6015.7 secs

     End of self-consistent calculation

          k = 0.0000 0.0000 0.0000 ( 18047 PWs)   bands (ev):

   -24.6491 -24.2321 -23.4475 -23.0834 -12.0263 -11.8846 -11.8758 -11.8120
   -10.1093  -9.0470  -7.5396  -7.0151  -6.4283  -6.4099  -6.3232  -6.1816

          k =-0.0153 0.2863 0.0000 ( 18132 PWs)   bands (ev):

   -24.5131 -24.1004 -23.6179 -23.2477 -12.1498 -12.1036 -11.6418 -11.5793
    -9.8782  -8.9635  -7.7397  -7.3443  -6.5412  -6.4419  -6.2125  -6.1010

          k = 0.0307-0.5725 0.0000 ( 18166 PWs)   bands (ev):

   -24.2865 -23.9009 -23.8554 -23.5022 -12.2158 -12.2011 -11.5075 -11.4297
    -9.5693  -8.8338  -8.0017  -7.7436  -6.5946  -6.4432  -6.1214  -6.0273

          k = 0.2575-0.1328 0.0000 ( 18109 PWs)   bands (ev):

   -24.5110 -24.0983 -23.6196 -23.2493 -12.1672 -12.1247 -11.6254 -11.5761
    -9.8750  -8.9644  -7.7342  -7.3376  -6.5384  -6.4407  -6.2068  -6.1019

          k = 0.2421 0.1535 0.0000 ( 18132 PWs)   bands (ev):

   -24.5125 -24.1053 -23.6181 -23.2422 -12.0698 -11.9202 -11.8932 -11.6813
    -9.7758  -8.8626  -7.9005  -7.3993  -6.4057  -6.3155  -6.2425  -6.2244

          k = 0.2882-0.7053 0.0000 ( 18147 PWs)   bands (ev):

   -24.2851 -23.9196 -23.8478 -23.4913 -12.1883 -12.1455 -11.6290 -11.4860
    -9.4058  -8.6190  -8.2710  -7.8558  -6.5080  -6.3954  -6.1182  -6.0568

          k = 0.2728-0.4190 0.0000 ( 18128 PWs)   bands (ev):

   -24.2825 -23.9015 -23.8542 -23.5059 -12.2363 -12.2324 -11.4838 -11.4247
    -9.5439  -8.8010  -8.0197  -7.7906  -6.5766  -6.4488  -6.0876  -6.0336

          k =-0.5150 0.2656 0.0000 ( 18184 PWs)   bands (ev):

   -24.2776 -23.9030 -23.8523 -23.5103 -12.2464 -12.2267 -11.4960 -11.4230
    -9.5692  -8.8404  -7.9868  -7.7183  -6.5887  -6.4432  -6.1106  -6.0262

          k =-0.5303 0.5518 0.0000 ( 18128 PWs)   bands (ev):

   -24.2806 -23.9199 -23.8473 -23.4952 -12.2040 -12.1615 -11.6205 -11.4804
    -9.4069  -8.6269  -8.2623  -7.8427  -6.5070  -6.3933  -6.1104  -6.0576

          k =-0.4843-0.3070 0.0000 ( 18166 PWs)   bands (ev):

   -24.2825 -23.9384 -23.8402 -23.4821 -12.1129 -11.9486 -11.8903 -11.5823
    -9.2216  -8.6910  -8.1719  -8.0352  -6.3632  -6.2992  -6.1916  -6.1735

     highest occupied level (ev):    -6.0262

!    total energy              =    -176.32086186 Ry

     total all-electron energy =      -611.708407 Ry
     estimated scf accuracy    <          7.5E-13 Ry

     The total energy is the sum of the following terms:
     one-electron contribution =    -667.77314029 Ry
     hartree contribution      =     341.92254508 Ry
     xc contribution           =     -35.62847030 Ry
     ewald contribution        =     223.50913534 Ry
     one-center paw contrib.   =     -38.35093169 Ry

     convergence has been achieved in   6 iterations

     negative rho (up, down):  4.844E-04 0.000E+00

     Forces acting on atoms (cartesian axes, Ry/au):

     atom    1 type  1   force =    -0.00000368    0.00001451   -0.00000833
     atom    2 type  1   force =     0.00001140    0.00001010    0.00001347
     atom    3 type  1   force =     0.00002037   -0.00002661   -0.00000074
     atom    4 type  1   force =     0.00003074    0.00001479   -0.00003735
     atom    5 type  1   force =    -0.00002173   -0.00000933    0.00003241
     atom    6 type  1   force =    -0.00000091    0.00000272   -0.00000509
     atom    7 type  1   force =    -0.00001617    0.00002348    0.00000948
     atom    8 type  1   force =     0.00000377   -0.00002091    0.00001756
     atom    9 type  2   force =    -0.00000277   -0.00000415   -0.00001752
     atom   10 type  2   force =    -0.00001956    0.00000731    0.00001300
     atom   11 type  2   force =     0.00001384   -0.00000311   -0.00000694
     atom   12 type  2   force =    -0.00001530   -0.00000881   -0.00000997

     Total force =     0.000096     Total SCF correction =     0.000001
     Energy error            =      1.4E-08 Ry
     Gradient error          =      3.7E-05 Ry/Bohr

     number of scf cycles    =  88
     number of bfgs steps    =  86

     energy             old  =    -176.3208618469 Ry
     energy             new  =    -176.3208618609 Ry

     CASE: energy            _new < energy            _old

     new trust radius        =       0.0004453351 bohr
     new conv_thr            =            1.0E-12 Ry


ATOMIC_POSITIONS (angstrom)
H             4.4736565103        3.7446890551       11.2233371829
H             5.3207995421        4.3037944202       10.0181131683
H             3.2966484751        1.1567420128        8.0887723907
H             3.1454515285        2.8648736692        9.3218515385
H             3.9930650776        3.4238402823        8.1167410579
H             6.3313540357        3.9817233700        8.0943926007
H             3.0065676036        1.8177304329       11.2511394621
H             2.1349402506        3.1872333305       11.2454077676
O             5.2908821453        4.2811152796       11.0189808455
O             3.1757136106        2.8875218777        8.3209793657
O             5.4271118507        4.3694751242        8.2646246189
O             3.0391958206        2.7993679034       11.0753460791



     Writing config-only to output data dir ./output/f-BH.save/
     NEW-OLD atomic charge density approx. for the potential

     negative rho (up, down):  4.843E-04 0.000E+00

     total cpu time spent up to now is     6028.4 secs

     per-process dynamical memory:   210.3 Mb

     Self-consistent Calculation

     iteration #  1     ecut=    60.00 Ry     beta= 0.70
     Davidson diagonalization with overlap
     ethr =  1.00E-06,  avg # of iterations =  2.0

     Threshold (ethr) on eigenvalues was too large:
     Diagonalizing with lowered threshold

     Davidson diagonalization with overlap
     ethr =  1.40E-10,  avg # of iterations =  4.3

     negative rho (up, down):  4.843E-04 0.000E+00

     total cpu time spent up to now is     6040.5 secs

     total energy              =    -176.32086187 Ry
     estimated scf accuracy    <       0.00000008 Ry

     iteration #  2     ecut=    60.00 Ry     beta= 0.70
     Davidson diagonalization with overlap
     ethr =  2.42E-10,  avg # of iterations =  2.0

     negative rho (up, down):  4.843E-04 0.000E+00

     total cpu time spent up to now is     6045.8 secs

     total energy              =    -176.32086188 Ry
     estimated scf accuracy    <          4.6E-09 Ry

     iteration #  3     ecut=    60.00 Ry     beta= 0.70
     Davidson diagonalization with overlap
     ethr =  1.45E-11,  avg # of iterations =  2.0

     negative rho (up, down):  4.843E-04 0.000E+00

     total cpu time spent up to now is     6051.5 secs

     total energy              =    -176.32086188 Ry
     estimated scf accuracy    <          1.2E-09 Ry

     iteration #  4     ecut=    60.00 Ry     beta= 0.70
     Davidson diagonalization with overlap
     ethr =  3.65E-12,  avg # of iterations =  2.0

     negative rho (up, down):  4.843E-04 0.000E+00

     total cpu time spent up to now is     6057.0 secs

     total energy              =    -176.32086188 Ry
     estimated scf accuracy    <          6.0E-11 Ry

     iteration #  5     ecut=    60.00 Ry     beta= 0.70
     Davidson diagonalization with overlap
     ethr =  1.86E-13,  avg # of iterations =  2.0

     negative rho (up, down):  4.843E-04 0.000E+00

     total cpu time spent up to now is     6062.5 secs

     total energy              =    -176.32086188 Ry
     estimated scf accuracy    <          1.6E-11 Ry

     iteration #  6     ecut=    60.00 Ry     beta= 0.70
     Davidson diagonalization with overlap
     ethr =  1.00E-13,  avg # of iterations =  1.8

     negative rho (up, down):  4.843E-04 0.000E+00

     total cpu time spent up to now is     6067.0 secs

     End of self-consistent calculation

          k = 0.0000 0.0000 0.0000 ( 18047 PWs)   bands (ev):

   -24.6491 -24.2321 -23.4475 -23.0835 -12.0263 -11.8845 -11.8759 -11.8123
   -10.1093  -9.0469  -7.5396  -7.0152  -6.4283  -6.4098  -6.3232  -6.1816

          k =-0.0153 0.2863 0.0000 ( 18132 PWs)   bands (ev):

   -24.5131 -24.1004 -23.6180 -23.2477 -12.1499 -12.1036 -11.6418 -11.5795
    -9.8781  -8.9634  -7.7397  -7.3443  -6.5412  -6.4419  -6.2125  -6.1010

          k = 0.0307-0.5725 0.0000 ( 18166 PWs)   bands (ev):

   -24.2866 -23.9010 -23.8554 -23.5022 -12.2160 -12.2010 -11.5076 -11.4300
    -9.5691  -8.8337  -8.0017  -7.7436  -6.5946  -6.4432  -6.1214  -6.0273

          k = 0.2575-0.1328 0.0000 ( 18109 PWs)   bands (ev):

   -24.5110 -24.0984 -23.6196 -23.2493 -12.1672 -12.1247 -11.6256 -11.5761
    -9.8750  -8.9643  -7.7341  -7.3376  -6.5384  -6.4407  -6.2067  -6.1019

          k = 0.2421 0.1535 0.0000 ( 18132 PWs)   bands (ev):

   -24.5126 -24.1053 -23.6181 -23.2423 -12.0698 -11.9202 -11.8934 -11.6814
    -9.7758  -8.8625  -7.9005  -7.3993  -6.4057  -6.3155  -6.2425  -6.2244

          k = 0.2882-0.7053 0.0000 ( 18147 PWs)   bands (ev):

   -24.2852 -23.9197 -23.8478 -23.4913 -12.1884 -12.1455 -11.6291 -11.4862
    -9.4057  -8.6188  -8.2710  -7.8558  -6.5080  -6.3954  -6.1182  -6.0567

          k = 0.2728-0.4190 0.0000 ( 18128 PWs)   bands (ev):

   -24.2825 -23.9015 -23.8542 -23.5059 -12.2363 -12.2325 -11.4840 -11.4248
    -9.5438  -8.8009  -8.0196  -7.7906  -6.5766  -6.4488  -6.0875  -6.0336

          k =-0.5150 0.2656 0.0000 ( 18184 PWs)   bands (ev):

   -24.2776 -23.9031 -23.8523 -23.5104 -12.2464 -12.2267 -11.4962 -11.4230
    -9.5693  -8.8404  -7.9866  -7.7182  -6.5887  -6.4433  -6.1106  -6.0262

          k =-0.5303 0.5518 0.0000 ( 18128 PWs)   bands (ev):

   -24.2806 -23.9200 -23.8474 -23.4952 -12.2040 -12.1615 -11.6207 -11.4805
    -9.4069  -8.6268  -8.2622  -7.8426  -6.5071  -6.3933  -6.1104  -6.0576

          k =-0.4843-0.3070 0.0000 ( 18166 PWs)   bands (ev):

   -24.2825 -23.9385 -23.8402 -23.4821 -12.1129 -11.9486 -11.8905 -11.5825
    -9.2216  -8.6908  -8.1719  -8.0352  -6.3632  -6.2991  -6.1916  -6.1735

     highest occupied level (ev):    -6.0262

!    total energy              =    -176.32086188 Ry

     total all-electron energy =      -611.708407 Ry
     estimated scf accuracy    <          8.4E-13 Ry

     The total energy is the sum of the following terms:
     one-electron contribution =    -667.77463800 Ry
     hartree contribution      =     341.92330069 Ry
     xc contribution           =     -35.62850746 Ry
     ewald contribution        =     223.50991414 Ry
     one-center paw contrib.   =     -38.35093125 Ry

     convergence has been achieved in   6 iterations

     negative rho (up, down):  4.843E-04 0.000E+00

     Forces acting on atoms (cartesian axes, Ry/au):

     atom    1 type  1   force =    -0.00001496    0.00000971   -0.00001273
     atom    2 type  1   force =     0.00000763    0.00000738    0.00000181
     atom    3 type  1   force =     0.00001928   -0.00002317    0.00000338
     atom    4 type  1   force =     0.00003088    0.00000776   -0.00002539
     atom    5 type  1   force =    -0.00002004   -0.00000663    0.00003178
     atom    6 type  1   force =     0.00000652    0.00000356   -0.00000561
     atom    7 type  1   force =    -0.00001176    0.00001611    0.00001084
     atom    8 type  1   force =     0.00000001   -0.00001165    0.00001359
     atom    9 type  2   force =    -0.00000227   -0.00000184    0.00000080
     atom   10 type  2   force =    -0.00003210    0.00000377   -0.00000228
     atom   11 type  2   force =     0.00001351    0.00000248   -0.00000763
     atom   12 type  2   force =     0.00000330   -0.00000747   -0.00000854

     Total force =     0.000084     Total SCF correction =     0.000002
     Energy error            =      1.9E-08 Ry
     Gradient error          =      3.2E-05 Ry/Bohr

     number of scf cycles    =  89
     number of bfgs steps    =  87

     energy             old  =    -176.3208618609 Ry
     energy             new  =    -176.3208618798 Ry

     CASE: energy            _new < energy            _old

     new trust radius        =       0.0004399634 bohr
     new conv_thr            =            1.0E-12 Ry


ATOMIC_POSITIONS (angstrom)
H             4.4735665966        3.7448330079       11.2233262065
H             5.3207739506        4.3038369234       10.0180823187
H             3.2968194612        1.1565875165        8.0887543242
H             3.1455230305        2.8649115695        9.3218779407
H             3.9932100937        3.4237188376        8.1167929045
H             6.3314685363        3.9815560094        8.0943575461
H             3.0063742887        1.8178601782       11.2511395105
H             2.1347616561        3.1873326543       11.2454527005
O             5.2907831458        4.2812398257       11.0189402323
O             3.1758542234        2.8874159217        8.3210199204
O             5.4272381286        4.3693256813        8.2645806798
O             3.0390133395        2.7994886326       11.0753617937



     Writing config-only to output data dir ./output/f-BH.save/
     NEW-OLD atomic charge density approx. for the potential

     negative rho (up, down):  4.843E-04 0.000E+00

     total cpu time spent up to now is     6079.7 secs

     per-process dynamical memory:   210.2 Mb

     Self-consistent Calculation

     iteration #  1     ecut=    60.00 Ry     beta= 0.70
     Davidson diagonalization with overlap
     ethr =  1.00E-06,  avg # of iterations =  2.0

     Threshold (ethr) on eigenvalues was too large:
     Diagonalizing with lowered threshold

     Davidson diagonalization with overlap
     ethr =  1.21E-10,  avg # of iterations =  4.4

     negative rho (up, down):  4.843E-04 0.000E+00

     total cpu time spent up to now is     6091.8 secs

     total energy              =    -176.32086188 Ry
     estimated scf accuracy    <       0.00000007 Ry

     iteration #  2     ecut=    60.00 Ry     beta= 0.70
     Davidson diagonalization with overlap
     ethr =  2.23E-10,  avg # of iterations =  2.0

     negative rho (up, down):  4.843E-04 0.000E+00

     total cpu time spent up to now is     6097.1 secs

     total energy              =    -176.32086189 Ry
     estimated scf accuracy    <          3.8E-09 Ry

     iteration #  3     ecut=    60.00 Ry     beta= 0.70
     Davidson diagonalization with overlap
     ethr =  1.19E-11,  avg # of iterations =  2.0

     negative rho (up, down):  4.843E-04 0.000E+00

     total cpu time spent up to now is     6102.6 secs

     total energy              =    -176.32086189 Ry
     estimated scf accuracy    <          7.7E-10 Ry

     iteration #  4     ecut=    60.00 Ry     beta= 0.70
     Davidson diagonalization with overlap
     ethr =  2.40E-12,  avg # of iterations =  2.1

     negative rho (up, down):  4.843E-04 0.000E+00

     total cpu time spent up to now is     6108.2 secs

     total energy              =    -176.32086189 Ry
     estimated scf accuracy    <          7.2E-11 Ry

     iteration #  5     ecut=    60.00 Ry     beta= 0.70
     Davidson diagonalization with overlap
     ethr =  2.25E-13,  avg # of iterations =  2.0

     negative rho (up, down):  4.843E-04 0.000E+00

     total cpu time spent up to now is     6113.4 secs

     total energy              =    -176.32086189 Ry
     estimated scf accuracy    <          8.4E-12 Ry

     iteration #  6     ecut=    60.00 Ry     beta= 0.70
     Davidson diagonalization with overlap
     ethr =  1.00E-13,  avg # of iterations =  1.2

     negative rho (up, down):  4.843E-04 0.000E+00

     total cpu time spent up to now is     6117.6 secs

     End of self-consistent calculation

          k = 0.0000 0.0000 0.0000 ( 18047 PWs)   bands (ev):

   -24.6492 -24.2322 -23.4476 -23.0836 -12.0263 -11.8844 -11.8759 -11.8125
   -10.1093  -9.0469  -7.5397  -7.0152  -6.4283  -6.4098  -6.3232  -6.1816

          k =-0.0153 0.2863 0.0000 ( 18132 PWs)   bands (ev):

   -24.5132 -24.1005 -23.6180 -23.2478 -12.1499 -12.1036 -11.6418 -11.5797
    -9.8781  -8.9633  -7.7398  -7.3444  -6.5412  -6.4419  -6.2125  -6.1010

          k = 0.0307-0.5725 0.0000 ( 18166 PWs)   bands (ev):

   -24.2867 -23.9011 -23.8554 -23.5022 -12.2161 -12.2009 -11.5077 -11.4302
    -9.5691  -8.8336  -8.0017  -7.7437  -6.5946  -6.4433  -6.1214  -6.0272

          k = 0.2575-0.1328 0.0000 ( 18109 PWs)   bands (ev):

   -24.5111 -24.0984 -23.6197 -23.2494 -12.1671 -12.1247 -11.6258 -11.5760
    -9.8750  -8.9643  -7.7341  -7.3376  -6.5385  -6.4408  -6.2067  -6.1018

          k = 0.2421 0.1535 0.0000 ( 18132 PWs)   bands (ev):

   -24.5126 -24.1054 -23.6182 -23.2424 -12.0698 -11.9201 -11.8936 -11.6815
    -9.7758  -8.8625  -7.9006  -7.3994  -6.4056  -6.3155  -6.2425  -6.2244

          k = 0.2882-0.7053 0.0000 ( 18147 PWs)   bands (ev):

   -24.2853 -23.9198 -23.8479 -23.4914 -12.1883 -12.1456 -11.6292 -11.4863
    -9.4056  -8.6187  -8.2710  -7.8558  -6.5080  -6.3954  -6.1182  -6.0567

          k = 0.2728-0.4190 0.0000 ( 18128 PWs)   bands (ev):

   -24.2826 -23.9016 -23.8542 -23.5060 -12.2362 -12.2325 -11.4841 -11.4249
    -9.5438  -8.8009  -8.0196  -7.7906  -6.5766  -6.4488  -6.0875  -6.0335

          k =-0.5150 0.2656 0.0000 ( 18184 PWs)   bands (ev):

   -24.2776 -23.9032 -23.8523 -23.5106 -12.2463 -12.2267 -11.4964 -11.4230
    -9.5693  -8.8404  -7.9866  -7.7182  -6.5888  -6.4433  -6.1106  -6.0261

          k =-0.5303 0.5518 0.0000 ( 18128 PWs)   bands (ev):

   -24.2807 -23.9201 -23.8474 -23.4953 -12.2039 -12.1615 -11.6208 -11.4805
    -9.4070  -8.6268  -8.2622  -7.8426  -6.5071  -6.3933  -6.1104  -6.0575

          k =-0.4843-0.3070 0.0000 ( 18166 PWs)   bands (ev):

   -24.2826 -23.9386 -23.8402 -23.4822 -12.1129 -11.9486 -11.8907 -11.5826
    -9.2216  -8.6907  -8.1718  -8.0352  -6.3632  -6.2991  -6.1917  -6.1735

     highest occupied level (ev):    -6.0261

!    total energy              =    -176.32086189 Ry

     total all-electron energy =      -611.708407 Ry
     estimated scf accuracy    <          2.5E-13 Ry

     The total energy is the sum of the following terms:
     one-electron contribution =    -667.77583144 Ry
     hartree contribution      =     341.92390083 Ry
     xc contribution           =     -35.62856023 Ry
     ewald contribution        =     223.51056040 Ry
     one-center paw contrib.   =     -38.35093145 Ry

     convergence has been achieved in   6 iterations

     negative rho (up, down):  4.843E-04 0.000E+00

     Forces acting on atoms (cartesian axes, Ry/au):

     atom    1 type  1   force =    -0.00002541    0.00000434   -0.00001668
     atom    2 type  1   force =     0.00000545    0.00000403   -0.00000881
     atom    3 type  1   force =     0.00001437   -0.00001306    0.00000362
     atom    4 type  1   force =     0.00002020   -0.00000350   -0.00000450
     atom    5 type  1   force =    -0.00001288    0.00000017    0.00001962
     atom    6 type  1   force =     0.00001420    0.00000074   -0.00000381
     atom    7 type  1   force =    -0.00000364    0.00000360    0.00001048
     atom    8 type  1   force =    -0.00000482   -0.00000013    0.00000756
     atom    9 type  2   force =    -0.00000161    0.00000163    0.00001842
     atom   10 type  2   force =    -0.00003466    0.00000133   -0.00001696
     atom   11 type  2   force =     0.00001062    0.00000451   -0.00000529
     atom   12 type  2   force =     0.00001818   -0.00000365   -0.00000365

     Total force =     0.000072     Total SCF correction =     0.000001
     Energy error            =      1.4E-08 Ry
     Gradient error          =      3.5E-05 Ry/Bohr

     number of scf cycles    =  90
     number of bfgs steps    =  88

     energy             old  =    -176.3208618798 Ry
     energy             new  =    -176.3208618934 Ry

     CASE: energy            _new < energy            _old

     new trust radius        =       0.0001972878 bohr
     new conv_thr            =            1.0E-12 Ry


ATOMIC_POSITIONS (angstrom)
H             4.4735185840        3.7448939154       11.2233140905
H             5.3207635208        4.3038581431       10.0180705658
H             3.2968980238        1.1565187748        8.0887557032
H             3.1455658349        2.8649216816        9.3218828951
H             3.9932492112        3.4236568589        8.1168233254
H             6.3315245356        3.9814900710        8.0943386134
H             3.0062926808        1.8179219325       11.2511490429
H             2.1347034690        3.1873808904       11.2454696925
O             5.2907383985        4.2812903255       11.0189264633
O             3.1758835255        2.8873708825        8.3210306252
O             5.4272954995        4.3692606330        8.2645602761
O             3.0389531669        2.7995426492       11.0753647845



     Writing config-only to output data dir ./output/f-BH.save/
     NEW-OLD atomic charge density approx. for the potential

     negative rho (up, down):  4.843E-04 0.000E+00

     total cpu time spent up to now is     6130.3 secs

     per-process dynamical memory:   210.3 Mb

     Self-consistent Calculation

     iteration #  1     ecut=    60.00 Ry     beta= 0.70
     Davidson diagonalization with overlap
     ethr =  1.00E-06,  avg # of iterations =  2.0

     Threshold (ethr) on eigenvalues was too large:
     Diagonalizing with lowered threshold

     Davidson diagonalization with overlap
     ethr =  1.72E-11,  avg # of iterations =  4.5

     negative rho (up, down):  4.843E-04 0.000E+00

     total cpu time spent up to now is     6142.7 secs

     total energy              =    -176.32086190 Ry
     estimated scf accuracy    <       0.00000001 Ry

     iteration #  2     ecut=    60.00 Ry     beta= 0.70
     Davidson diagonalization with overlap
     ethr =  3.50E-11,  avg # of iterations =  2.0

     negative rho (up, down):  4.843E-04 0.000E+00

     total cpu time spent up to now is     6147.9 secs

     total energy              =    -176.32086190 Ry
     estimated scf accuracy    <          5.1E-10 Ry

     iteration #  3     ecut=    60.00 Ry     beta= 0.70
     Davidson diagonalization with overlap
     ethr =  1.60E-12,  avg # of iterations =  2.0

     negative rho (up, down):  4.843E-04 0.000E+00

     total cpu time spent up to now is     6152.9 secs

     total energy              =    -176.32086190 Ry
     estimated scf accuracy    <          3.5E-11 Ry

     iteration #  4     ecut=    60.00 Ry     beta= 0.70
     Davidson diagonalization with overlap
     ethr =  1.10E-13,  avg # of iterations =  2.7

     negative rho (up, down):  4.843E-04 0.000E+00

     total cpu time spent up to now is     6158.7 secs

     total energy              =    -176.32086190 Ry
     estimated scf accuracy    <          7.5E-12 Ry

     iteration #  5     ecut=    60.00 Ry     beta= 0.70
     Davidson diagonalization with overlap
     ethr =  1.00E-13,  avg # of iterations =  1.1

     negative rho (up, down):  4.843E-04 0.000E+00

     total cpu time spent up to now is     6162.9 secs

     End of self-consistent calculation

          k = 0.0000 0.0000 0.0000 ( 18047 PWs)   bands (ev):

   -24.6493 -24.2322 -23.4476 -23.0836 -12.0262 -11.8843 -11.8759 -11.8125
   -10.1094  -9.0470  -7.5398  -7.0153  -6.4283  -6.4098  -6.3232  -6.1816

          k =-0.0153 0.2863 0.0000 ( 18132 PWs)   bands (ev):

   -24.5133 -24.1005 -23.6181 -23.2478 -12.1499 -12.1035 -11.6418 -11.5797
    -9.8781  -8.9634  -7.7398  -7.3444  -6.5412  -6.4419  -6.2125  -6.1009

          k = 0.0307-0.5725 0.0000 ( 18166 PWs)   bands (ev):

   -24.2868 -23.9011 -23.8554 -23.5023 -12.2161 -12.2009 -11.5076 -11.4303
    -9.5691  -8.8336  -8.0018  -7.7437  -6.5946  -6.4433  -6.1214  -6.0272

          k = 0.2575-0.1328 0.0000 ( 18109 PWs)   bands (ev):

   -24.5111 -24.0985 -23.6197 -23.2495 -12.1671 -12.1246 -11.6258 -11.5760
    -9.8751  -8.9643  -7.7342  -7.3377  -6.5385  -6.4408  -6.2067  -6.1018

          k = 0.2421 0.1535 0.0000 ( 18132 PWs)   bands (ev):

   -24.5127 -24.1054 -23.6182 -23.2424 -12.0697 -11.9201 -11.8936 -11.6815
    -9.7759  -8.8626  -7.9006  -7.3994  -6.4056  -6.3155  -6.2425  -6.2244

          k = 0.2882-0.7053 0.0000 ( 18147 PWs)   bands (ev):

   -24.2853 -23.9199 -23.8479 -23.4914 -12.1883 -12.1455 -11.6292 -11.4863
    -9.4057  -8.6188  -8.2711  -7.8559  -6.5080  -6.3955  -6.1182  -6.0567

          k = 0.2728-0.4190 0.0000 ( 18128 PWs)   bands (ev):

   -24.2826 -23.9017 -23.8542 -23.5061 -12.2361 -12.2325 -11.4841 -11.4249
    -9.5439  -8.8009  -8.0196  -7.7906  -6.5767  -6.4489  -6.0875  -6.0335

          k =-0.5150 0.2656 0.0000 ( 18184 PWs)   bands (ev):

   -24.2777 -23.9033 -23.8523 -23.5106 -12.2462 -12.2267 -11.4965 -11.4230
    -9.5694  -8.8404  -7.9866  -7.7183  -6.5889  -6.4433  -6.1106  -6.0261

          k =-0.5303 0.5518 0.0000 ( 18128 PWs)   bands (ev):

   -24.2807 -23.9201 -23.8474 -23.4954 -12.2039 -12.1615 -11.6208 -11.4805
    -9.4070  -8.6268  -8.2622  -7.8427  -6.5071  -6.3933  -6.1104  -6.0575

          k =-0.4843-0.3070 0.0000 ( 18166 PWs)   bands (ev):

   -24.2826 -23.9387 -23.8403 -23.4822 -12.1129 -11.9485 -11.8907 -11.5825
    -9.2217  -8.6908  -8.1719  -8.0353  -6.3632  -6.2991  -6.1917  -6.1736

     highest occupied level (ev):    -6.0261

!    total energy              =    -176.32086190 Ry

     total all-electron energy =      -611.708407 Ry
     estimated scf accuracy    <          1.9E-13 Ry

     The total energy is the sum of the following terms:
     one-electron contribution =    -667.77605737 Ry
     hartree contribution      =     341.92399785 Ry
     xc contribution           =     -35.62858245 Ry
     ewald contribution        =     223.51071203 Ry
     one-center paw contrib.   =     -38.35093195 Ry

     convergence has been achieved in   5 iterations

     negative rho (up, down):  4.843E-04 0.000E+00

     Forces acting on atoms (cartesian axes, Ry/au):

     atom    1 type  1   force =    -0.00002671    0.00000241   -0.00001745
     atom    2 type  1   force =     0.00000525    0.00000240   -0.00000998
     atom    3 type  1   force =     0.00000965   -0.00000568    0.00000163
     atom    4 type  1   force =     0.00000726   -0.00001088    0.00000697
     atom    5 type  1   force =    -0.00000778    0.00000521    0.00000599
     atom    6 type  1   force =     0.00001626   -0.00000243   -0.00000153
     atom    7 type  1   force =     0.00000260   -0.00000416    0.00000939
     atom    8 type  1   force =    -0.00000559    0.00000546    0.00000407
     atom    9 type  2   force =    -0.00000216    0.00000332    0.00002195
     atom   10 type  2   force =    -0.00002559    0.00000237   -0.00001837
     atom   11 type  2   force =     0.00000851    0.00000306   -0.00000290
     atom   12 type  2   force =     0.00001830   -0.00000106    0.00000022

     Total force =     0.000063     Total SCF correction =     0.000000
     Energy error            =      6.6E-09 Ry
     Gradient error          =      2.7E-05 Ry/Bohr

     number of scf cycles    =  91
     number of bfgs steps    =  89

     energy             old  =    -176.3208618934 Ry
     energy             new  =    -176.3208619000 Ry

     CASE: energy            _new < energy            _old

     new trust radius        =       0.0001624598 bohr
     new conv_thr            =            1.0E-12 Ry


ATOMIC_POSITIONS (angstrom)
H             4.4734451209        3.7449271575       11.2232842748
H             5.3207553181        4.3038730301       10.0180688883
H             3.2969721614        1.1564809102        8.0887578353
H             3.1456192608        2.8649193037        9.3218772152
H             3.9932730970        3.4236157839        8.1168561617
H             6.3315908640        3.9814642580        8.0943307177
H             3.0062254948        1.8179578708       11.2511638806
H             2.1346598761        3.1874047207       11.2454757337
O             5.2906847221        4.2813092708       11.0189260396
O             3.1758891376        2.8873529734        8.3210280091
O             5.4273574967        4.3692294733        8.2645496356
O             3.0389139013        2.7995720056       11.0753676864



     Writing config-only to output data dir ./output/f-BH.save/
     NEW-OLD atomic charge density approx. for the potential

     negative rho (up, down):  4.843E-04 0.000E+00

     total cpu time spent up to now is     6175.6 secs

     per-process dynamical memory:   210.2 Mb

     Self-consistent Calculation

     iteration #  1     ecut=    60.00 Ry     beta= 0.70
     Davidson diagonalization with overlap
     ethr =  1.00E-06,  avg # of iterations =  2.0

     Threshold (ethr) on eigenvalues was too large:
     Diagonalizing with lowered threshold

     Davidson diagonalization with overlap
     ethr =  1.16E-11,  avg # of iterations =  3.8

     negative rho (up, down):  4.843E-04 0.000E+00

     total cpu time spent up to now is     6187.3 secs

     total energy              =    -176.32086191 Ry
     estimated scf accuracy    <          6.1E-09 Ry

     iteration #  2     ecut=    60.00 Ry     beta= 0.70
     Davidson diagonalization with overlap
     ethr =  1.90E-11,  avg # of iterations =  2.0

     negative rho (up, down):  4.843E-04 0.000E+00

     total cpu time spent up to now is     6192.6 secs

     total energy              =    -176.32086191 Ry
     estimated scf accuracy    <          4.5E-10 Ry

     iteration #  3     ecut=    60.00 Ry     beta= 0.70
     Davidson diagonalization with overlap
     ethr =  1.40E-12,  avg # of iterations =  2.1

     negative rho (up, down):  4.843E-04 0.000E+00

     total cpu time spent up to now is     6198.2 secs

     total energy              =    -176.32086191 Ry
     estimated scf accuracy    <          1.2E-10 Ry

     iteration #  4     ecut=    60.00 Ry     beta= 0.70
     Davidson diagonalization with overlap
     ethr =  3.62E-13,  avg # of iterations =  2.1

     negative rho (up, down):  4.843E-04 0.000E+00

     total cpu time spent up to now is     6203.5 secs

     total energy              =    -176.32086191 Ry
     estimated scf accuracy    <          4.4E-12 Ry

     iteration #  5     ecut=    60.00 Ry     beta= 0.70
     Davidson diagonalization with overlap
     ethr =  1.00E-13,  avg # of iterations =  1.0

     negative rho (up, down):  4.843E-04 0.000E+00

     total cpu time spent up to now is     6207.8 secs

     total energy              =    -176.32086191 Ry
     estimated scf accuracy    <          1.2E-12 Ry

     iteration #  6     ecut=    60.00 Ry     beta= 0.70
     Davidson diagonalization with overlap
     ethr =  1.00E-13,  avg # of iterations =  1.0

     negative rho (up, down):  4.843E-04 0.000E+00

     total cpu time spent up to now is     6211.9 secs

     End of self-consistent calculation

          k = 0.0000 0.0000 0.0000 ( 18047 PWs)   bands (ev):

   -24.6493 -24.2323 -23.4477 -23.0837 -12.0262 -11.8842 -11.8758 -11.8126
   -10.1095  -9.0470  -7.5399  -7.0155  -6.4283  -6.4098  -6.3232  -6.1816

          k =-0.0153 0.2863 0.0000 ( 18132 PWs)   bands (ev):

   -24.5133 -24.1006 -23.6181 -23.2479 -12.1498 -12.1035 -11.6418 -11.5797
    -9.8783  -8.9634  -7.7399  -7.3445  -6.5413  -6.4420  -6.2125  -6.1010

          k = 0.0307-0.5725 0.0000 ( 18166 PWs)   bands (ev):

   -24.2869 -23.9012 -23.8555 -23.5023 -12.2160 -12.2008 -11.5076 -11.4302
    -9.5693  -8.8337  -8.0018  -7.7437  -6.5946  -6.4434  -6.1215  -6.0272

          k = 0.2575-0.1328 0.0000 ( 18109 PWs)   bands (ev):

   -24.5112 -24.0985 -23.6198 -23.2496 -12.1670 -12.1246 -11.6258 -11.5759
    -9.8752  -8.9644  -7.7343  -7.3378  -6.5385  -6.4408  -6.2067  -6.1018

          k = 0.2421 0.1535 0.0000 ( 18132 PWs)   bands (ev):

   -24.5128 -24.1055 -23.6183 -23.2425 -12.0697 -11.9200 -11.8935 -11.6814
    -9.7760  -8.8626  -7.9007  -7.3996  -6.4056  -6.3156  -6.2425  -6.2244

          k = 0.2882-0.7053 0.0000 ( 18147 PWs)   bands (ev):

   -24.2854 -23.9200 -23.8479 -23.4915 -12.1883 -12.1455 -11.6292 -11.4863
    -9.4058  -8.6189  -8.2711  -7.8560  -6.5080  -6.3955  -6.1183  -6.0567

          k = 0.2728-0.4190 0.0000 ( 18128 PWs)   bands (ev):

   -24.2827 -23.9018 -23.8543 -23.5061 -12.2361 -12.2325 -11.4841 -11.4249
    -9.5440  -8.8010  -8.0197  -7.7908  -6.5767  -6.4489  -6.0876  -6.0336

          k =-0.5150 0.2656 0.0000 ( 18184 PWs)   bands (ev):

   -24.2777 -23.9034 -23.8524 -23.5107 -12.2462 -12.2267 -11.4964 -11.4229
    -9.5695  -8.8404  -7.9868  -7.7185  -6.5889  -6.4434  -6.1106  -6.0262

          k =-0.5303 0.5518 0.0000 ( 18128 PWs)   bands (ev):

   -24.2808 -23.9202 -23.8475 -23.4955 -12.2039 -12.1615 -11.6208 -11.4804
    -9.4071  -8.6269  -8.2624  -7.8428  -6.5072  -6.3933  -6.1104  -6.0576

          k =-0.4843-0.3070 0.0000 ( 18166 PWs)   bands (ev):

   -24.2827 -23.9387 -23.8403 -23.4823 -12.1128 -11.9485 -11.8907 -11.5825
    -9.2218  -8.6909  -8.1720  -8.0354  -6.3632  -6.2991  -6.1917  -6.1736

     highest occupied level (ev):    -6.0262

!    total energy              =    -176.32086191 Ry

     total all-electron energy =      -611.708407 Ry
     estimated scf accuracy    <          7.7E-14 Ry

     The total energy is the sum of the following terms:
     one-electron contribution =    -667.77559052 Ry
     hartree contribution      =     341.92372363 Ry
     xc contribution           =     -35.62859184 Ry
     ewald contribution        =     223.51052961 Ry
     one-center paw contrib.   =     -38.35093278 Ry

     convergence has been achieved in   6 iterations

     negative rho (up, down):  4.843E-04 0.000E+00

     Forces acting on atoms (cartesian axes, Ry/au):

     atom    1 type  1   force =    -0.00002262    0.00000166   -0.00001606
     atom    2 type  1   force =     0.00000526    0.00000138   -0.00000532
     atom    3 type  1   force =     0.00000430    0.00000230   -0.00000106
     atom    4 type  1   force =    -0.00000992   -0.00001754    0.00001552
     atom    5 type  1   force =    -0.00000309    0.00001058   -0.00001119
     atom    6 type  1   force =     0.00001508   -0.00000567    0.00000116
     atom    7 type  1   force =     0.00000925   -0.00000990    0.00000808
     atom    8 type  1   force =    -0.00000198    0.00000864    0.00000102
     atom    9 type  2   force =    -0.00000342    0.00000473    0.00001657
     atom   10 type  2   force =    -0.00000840    0.00000509   -0.00001210
     atom   11 type  2   force =     0.00000618   -0.00000240    0.00000005
     atom   12 type  2   force =     0.00000936    0.00000112    0.00000332

     Total force =     0.000055     Total SCF correction =     0.000000
     Energy error            =      6.6E-09 Ry
     Gradient error          =      2.3E-05 Ry/Bohr

     number of scf cycles    =  92
     number of bfgs steps    =  90

     energy             old  =    -176.3208619000 Ry
     energy             new  =    -176.3208619066 Ry

     CASE: energy            _new < energy            _old

     new trust radius        =       0.0001577051 bohr
     new conv_thr            =            1.0E-12 Ry


ATOMIC_POSITIONS (angstrom)
H             4.4733733450        3.7449483774       11.2232473627
H             5.3207610666        4.3038865385       10.0180771752
H             3.2970126635        1.1564647887        8.0887506512
H             3.1456537498        2.8648974599        9.3218688145
H             3.9932842232        3.4235987200        8.1168719283
H             6.3316380953        3.9814576660        8.0943406456
H             3.0061993567        1.8179716623       11.2511748344
H             2.1346374812        3.1874119288       11.2454726129
O             5.2906429004        4.2813142962       11.0189376619
O             3.1758847767        2.8873500317        8.3210171711
O             5.4273987254        4.3692199001        8.2645549247
O             3.0389000671        2.7995853883       11.0753722956



     Writing config-only to output data dir ./output/f-BH.save/
     NEW-OLD atomic charge density approx. for the potential

     negative rho (up, down):  4.842E-04 0.000E+00

     total cpu time spent up to now is     6224.6 secs

     per-process dynamical memory:   210.3 Mb

     Self-consistent Calculation

     iteration #  1     ecut=    60.00 Ry     beta= 0.70
     Davidson diagonalization with overlap
     ethr =  1.00E-06,  avg # of iterations =  2.0

     Threshold (ethr) on eigenvalues was too large:
     Diagonalizing with lowered threshold

     Davidson diagonalization with overlap
     ethr =  5.62E-12,  avg # of iterations =  3.7

     negative rho (up, down):  4.842E-04 0.000E+00

     total cpu time spent up to now is     6236.2 secs

     total energy              =    -176.32086191 Ry
     estimated scf accuracy    <          2.7E-09 Ry

     iteration #  2     ecut=    60.00 Ry     beta= 0.70
     Davidson diagonalization with overlap
     ethr =  8.43E-12,  avg # of iterations =  2.0

     negative rho (up, down):  4.842E-04 0.000E+00

     total cpu time spent up to now is     6241.6 secs

     total energy              =    -176.32086191 Ry
     estimated scf accuracy    <          3.4E-10 Ry

     iteration #  3     ecut=    60.00 Ry     beta= 0.70
     Davidson diagonalization with overlap
     ethr =  1.05E-12,  avg # of iterations =  2.0

     negative rho (up, down):  4.842E-04 0.000E+00

     total cpu time spent up to now is     6247.4 secs

     total energy              =    -176.32086191 Ry
     estimated scf accuracy    <          7.0E-11 Ry

     iteration #  4     ecut=    60.00 Ry     beta= 0.70
     Davidson diagonalization with overlap
     ethr =  2.19E-13,  avg # of iterations =  2.0

     negative rho (up, down):  4.842E-04 0.000E+00

     total cpu time spent up to now is     6252.5 secs

     total energy              =    -176.32086191 Ry
     estimated scf accuracy    <          2.1E-12 Ry

     iteration #  5     ecut=    60.00 Ry     beta= 0.70
     Davidson diagonalization with overlap
     ethr =  1.00E-13,  avg # of iterations =  1.0

     negative rho (up, down):  4.842E-04 0.000E+00

     total cpu time spent up to now is     6256.7 secs

     End of self-consistent calculation

          k = 0.0000 0.0000 0.0000 ( 18047 PWs)   bands (ev):

   -24.6493 -24.2324 -23.4477 -23.0837 -12.0262 -11.8842 -11.8758 -11.8126
   -10.1096  -9.0471  -7.5400  -7.0155  -6.4284  -6.4098  -6.3233  -6.1816

          k =-0.0153 0.2863 0.0000 ( 18132 PWs)   bands (ev):

   -24.5134 -24.1006 -23.6182 -23.2479 -12.1498 -12.1035 -11.6417 -11.5797
    -9.8784  -8.9635  -7.7400  -7.3446  -6.5413  -6.4421  -6.2126  -6.1010

          k = 0.0307-0.5725 0.0000 ( 18166 PWs)   bands (ev):

   -24.2869 -23.9013 -23.8555 -23.5023 -12.2160 -12.2008 -11.5076 -11.4302
    -9.5694  -8.8338  -8.0018  -7.7438  -6.5947  -6.4434  -6.1215  -6.0273

          k = 0.2575-0.1328 0.0000 ( 18109 PWs)   bands (ev):

   -24.5112 -24.0986 -23.6198 -23.2496 -12.1670 -12.1246 -11.6258 -11.5758
    -9.8753  -8.9644  -7.7344  -7.3379  -6.5386  -6.4409  -6.2068  -6.1019

          k = 0.2421 0.1535 0.0000 ( 18132 PWs)   bands (ev):

   -24.5128 -24.1055 -23.6183 -23.2425 -12.0697 -11.9200 -11.8935 -11.6814
    -9.7761  -8.8627  -7.9008  -7.3996  -6.4057  -6.3156  -6.2426  -6.2244

          k = 0.2882-0.7053 0.0000 ( 18147 PWs)   bands (ev):

   -24.2854 -23.9200 -23.8480 -23.4915 -12.1883 -12.1455 -11.6291 -11.4862
    -9.4059  -8.6190  -8.2712  -7.8560  -6.5081  -6.3955  -6.1183  -6.0568

          k = 0.2728-0.4190 0.0000 ( 18128 PWs)   bands (ev):

   -24.2827 -23.9018 -23.8543 -23.5062 -12.2361 -12.2325 -11.4840 -11.4248
    -9.5441  -8.8010  -8.0198  -7.7908  -6.5767  -6.4490  -6.0876  -6.0336

          k =-0.5150 0.2656 0.0000 ( 18184 PWs)   bands (ev):

   -24.2777 -23.9034 -23.8524 -23.5108 -12.2462 -12.2267 -11.4964 -11.4228
    -9.5695  -8.8404  -7.9869  -7.7186  -6.5890  -6.4434  -6.1106  -6.0262

          k =-0.5303 0.5518 0.0000 ( 18128 PWs)   bands (ev):

   -24.2808 -23.9203 -23.8475 -23.4955 -12.2039 -12.1615 -11.6208 -11.4804
    -9.4072  -8.6269  -8.2625  -7.8429  -6.5072  -6.3934  -6.1104  -6.0576

          k =-0.4843-0.3070 0.0000 ( 18166 PWs)   bands (ev):

   -24.2827 -23.9388 -23.8403 -23.4823 -12.1128 -11.9485 -11.8906 -11.5824
    -9.2219  -8.6910  -8.1720  -8.0355  -6.3632  -6.2991  -6.1917  -6.1736

     highest occupied level (ev):    -6.0262

!    total energy              =    -176.32086191 Ry

     total all-electron energy =      -611.708407 Ry
     estimated scf accuracy    <          9.0E-13 Ry

     The total energy is the sum of the following terms:
     one-electron contribution =    -667.77472600 Ry
     hartree contribution      =     341.92325113 Ry
     xc contribution           =     -35.62858033 Ry
     ewald contribution        =     223.51012666 Ry
     one-center paw contrib.   =     -38.35093336 Ry

     convergence has been achieved in   5 iterations

     negative rho (up, down):  4.842E-04 0.000E+00

     Forces acting on atoms (cartesian axes, Ry/au):

     atom    1 type  1   force =    -0.00001540    0.00000206   -0.00001304
     atom    2 type  1   force =     0.00000447    0.00000127    0.00000202
     atom    3 type  1   force =     0.00000168    0.00000486   -0.00000186
     atom    4 type  1   force =    -0.00001982   -0.00001887    0.00001419
     atom    5 type  1   force =    -0.00000280    0.00001220   -0.00001992
     atom    6 type  1   force =     0.00001190   -0.00000641    0.00000233
     atom    7 type  1   force =     0.00001213   -0.00001024    0.00000770
     atom    8 type  1   force =     0.00000302    0.00000809    0.00000030
     atom    9 type  2   force =    -0.00000493    0.00000491    0.00000611
     atom   10 type  2   force =     0.00000546    0.00000739   -0.00000210
     atom   11 type  2   force =     0.00000547   -0.00000588    0.00000074
     atom   12 type  2   force =    -0.00000119    0.00000062    0.00000352

     Total force =     0.000053     Total SCF correction =     0.000001
     Energy error            =      5.0E-09 Ry
     Gradient error          =      2.0E-05 Ry/Bohr

     number of scf cycles    =  93
     number of bfgs steps    =  91

     energy             old  =    -176.3208619066 Ry
     energy             new  =    -176.3208619117 Ry

     CASE: energy            _new < energy            _old

     new trust radius        =       0.0001734756 bohr
     new conv_thr            =            1.0E-12 Ry


ATOMIC_POSITIONS (angstrom)
H             4.4732961067        3.7449685357       11.2232020306
H             5.3207762594        4.3039006471       10.0180905466
H             3.2970448934        1.1564542319        8.0887317550
H             3.1456761727        2.8648681967        9.3218614222
H             3.9932972891        3.4236004193        8.1168780442
H             6.3316828191        3.9814537992        8.0943556582
H             3.0061882187        1.8179732271       11.2511888275
H             2.1346131993        3.1874083220       11.2454743491
O             5.2906017411        4.2813150254       11.0189530244
O             3.1758874709        2.8873578630        8.3210064274
O             5.4274365540        4.3692164986        8.2645601925
O             3.0388857264        2.7995899921       11.0753838002



     Writing config-only to output data dir ./output/f-BH.save/
     NEW-OLD atomic charge density approx. for the potential

     negative rho (up, down):  4.842E-04 0.000E+00

     total cpu time spent up to now is     6269.6 secs

     per-process dynamical memory:   210.2 Mb

     Self-consistent Calculation

     iteration #  1     ecut=    60.00 Ry     beta= 0.70
     Davidson diagonalization with overlap
     ethr =  1.00E-06,  avg # of iterations =  2.0

     Threshold (ethr) on eigenvalues was too large:
     Diagonalizing with lowered threshold

     Davidson diagonalization with overlap
     ethr =  4.91E-12,  avg # of iterations =  4.0

     negative rho (up, down):  4.842E-04 0.000E+00

     total cpu time spent up to now is     6281.3 secs

     total energy              =    -176.32086192 Ry
     estimated scf accuracy    <          2.6E-09 Ry

     iteration #  2     ecut=    60.00 Ry     beta= 0.70
     Davidson diagonalization with overlap
     ethr =  8.27E-12,  avg # of iterations =  2.0

     negative rho (up, down):  4.842E-04 0.000E+00

     total cpu time spent up to now is     6286.6 secs

     total energy              =    -176.32086192 Ry
     estimated scf accuracy    <          2.9E-10 Ry

     iteration #  3     ecut=    60.00 Ry     beta= 0.70
     Davidson diagonalization with overlap
     ethr =  9.02E-13,  avg # of iterations =  2.0

     negative rho (up, down):  4.842E-04 0.000E+00

     total cpu time spent up to now is     6292.3 secs

     total energy              =    -176.32086192 Ry
     estimated scf accuracy    <          5.4E-11 Ry

     iteration #  4     ecut=    60.00 Ry     beta= 0.70
     Davidson diagonalization with overlap
     ethr =  1.68E-13,  avg # of iterations =  2.0

     negative rho (up, down):  4.842E-04 0.000E+00

     total cpu time spent up to now is     6297.5 secs

     total energy              =    -176.32086192 Ry
     estimated scf accuracy    <          2.0E-12 Ry

     iteration #  5     ecut=    60.00 Ry     beta= 0.70
     Davidson diagonalization with overlap
     ethr =  1.00E-13,  avg # of iterations =  1.0

     negative rho (up, down):  4.842E-04 0.000E+00

     total cpu time spent up to now is     6301.6 secs

     End of self-consistent calculation

          k = 0.0000 0.0000 0.0000 ( 18047 PWs)   bands (ev):

   -24.6494 -24.2324 -23.4477 -23.0838 -12.0262 -11.8842 -11.8758 -11.8126
   -10.1096  -9.0471  -7.5400  -7.0156  -6.4284  -6.4098  -6.3233  -6.1816

          k =-0.0153 0.2863 0.0000 ( 18132 PWs)   bands (ev):

   -24.5134 -24.1007 -23.6182 -23.2480 -12.1499 -12.1035 -11.6417 -11.5797
    -9.8784  -8.9636  -7.7400  -7.3446  -6.5413  -6.4421  -6.2126  -6.1010

          k = 0.0307-0.5725 0.0000 ( 18166 PWs)   bands (ev):

   -24.2869 -23.9013 -23.8555 -23.5024 -12.2161 -12.2008 -11.5075 -11.4301
    -9.5694  -8.8339  -8.0019  -7.7438  -6.5947  -6.4435  -6.1216  -6.0273

          k = 0.2575-0.1328 0.0000 ( 18109 PWs)   bands (ev):

   -24.5112 -24.0986 -23.6198 -23.2496 -12.1671 -12.1246 -11.6258 -11.5758
    -9.8753  -8.9645  -7.7345  -7.3380  -6.5386  -6.4409  -6.2068  -6.1019

          k = 0.2421 0.1535 0.0000 ( 18132 PWs)   bands (ev):

   -24.5128 -24.1056 -23.6183 -23.2426 -12.0697 -11.9200 -11.8935 -11.6814
    -9.7762  -8.8627  -7.9008  -7.3997  -6.4057  -6.3157  -6.2426  -6.2245

          k = 0.2882-0.7053 0.0000 ( 18147 PWs)   bands (ev):

   -24.2855 -23.9200 -23.8480 -23.4915 -12.1883 -12.1455 -11.6291 -11.4862
    -9.4060  -8.6190  -8.2712  -7.8560  -6.5081  -6.3956  -6.1184  -6.0568

          k = 0.2728-0.4190 0.0000 ( 18128 PWs)   bands (ev):

   -24.2827 -23.9018 -23.8543 -23.5062 -12.2361 -12.2325 -11.4840 -11.4248
    -9.5441  -8.8011  -8.0198  -7.7909  -6.5768  -6.4490  -6.0877  -6.0336

          k =-0.5150 0.2656 0.0000 ( 18184 PWs)   bands (ev):

   -24.2777 -23.9034 -23.8524 -23.5108 -12.2462 -12.2267 -11.4964 -11.4227
    -9.5696  -8.8405  -7.9870  -7.7187  -6.5890  -6.4434  -6.1106  -6.0262

          k =-0.5303 0.5518 0.0000 ( 18128 PWs)   bands (ev):

   -24.2808 -23.9203 -23.8475 -23.4955 -12.2039 -12.1615 -11.6207 -11.4803
    -9.4073  -8.6269  -8.2625  -7.8430  -6.5073  -6.3934  -6.1105  -6.0576

          k =-0.4843-0.3070 0.0000 ( 18166 PWs)   bands (ev):

   -24.2827 -23.9388 -23.8403 -23.4823 -12.1128 -11.9485 -11.8906 -11.5824
    -9.2220  -8.6910  -8.1721  -8.0356  -6.3633  -6.2991  -6.1918  -6.1737

     highest occupied level (ev):    -6.0262

!    total energy              =    -176.32086192 Ry

     total all-electron energy =      -611.708407 Ry
     estimated scf accuracy    <          5.0E-13 Ry

     The total energy is the sum of the following terms:
     one-electron contribution =    -667.77309423 Ry
     hartree contribution      =     341.92239406 Ry
     xc contribution           =     -35.62855967 Ry
     ewald contribution        =     223.50933140 Ry
     one-center paw contrib.   =     -38.35093348 Ry

     convergence has been achieved in   5 iterations

     negative rho (up, down):  4.842E-04 0.000E+00

     Forces acting on atoms (cartesian axes, Ry/au):

     atom    1 type  1   force =    -0.00000777    0.00000234   -0.00000904
     atom    2 type  1   force =     0.00000283    0.00000149    0.00000811
     atom    3 type  1   force =     0.00000093    0.00000545   -0.00000156
     atom    4 type  1   force =    -0.00002369   -0.00001655    0.00000865
     atom    5 type  1   force =    -0.00000442    0.00001145   -0.00002179
     atom    6 type  1   force =     0.00000800   -0.00000542    0.00000262
     atom    7 type  1   force =     0.00001221   -0.00000731    0.00000761
     atom    8 type  1   force =     0.00000840    0.00000542    0.00000046
     atom    9 type  2   force =    -0.00000676    0.00000439   -0.00000445
     atom   10 type  2   force =     0.00001394    0.00000761    0.00000665
     atom   11 type  2   force =     0.00000629   -0.00000822    0.00000085
     atom   12 type  2   force =    -0.00000996   -0.00000064    0.00000189

     Total force =     0.000053     Total SCF correction =     0.000001
     Energy error            =      4.5E-09 Ry
     Gradient error          =      2.4E-05 Ry/Bohr

     number of scf cycles    =  94
     number of bfgs steps    =  92

     energy             old  =    -176.3208619117 Ry
     energy             new  =    -176.3208619161 Ry

     CASE: energy            _new < energy            _old

     new trust radius        =       0.0002602134 bohr
     new conv_thr            =            1.0E-12 Ry


ATOMIC_POSITIONS (angstrom)
H             4.4731793355        3.7450024313       11.2231374040
H             5.3207943898        4.3039198950       10.0181099137
H             3.2971052328        1.1564344064        8.0887059162
H             3.1456983062        2.8648275578        9.3218563057
H             3.9933322074        3.4236114256        8.1168796040
H             6.3317583933        3.9814366356        8.0943780429
H             3.0061621282        1.8179759561       11.2512057627
H             2.1345609997        3.1874060852       11.2454806174
O             5.2905321769        4.2813225596       11.0189714479
O             3.1759166922        2.8873679285        8.3209976244
O             5.4275044440        4.3692046751        8.2645675192
O             3.0388421447        2.7995972018       11.0753959197



     Writing config-only to output data dir ./output/f-BH.save/
     NEW-OLD atomic charge density approx. for the potential

     negative rho (up, down):  4.842E-04 0.000E+00

     total cpu time spent up to now is     6314.5 secs

     per-process dynamical memory:   234.4 Mb

     Self-consistent Calculation

     iteration #  1     ecut=    60.00 Ry     beta= 0.70
     Davidson diagonalization with overlap
     ethr =  1.00E-06,  avg # of iterations =  2.0

     Threshold (ethr) on eigenvalues was too large:
     Diagonalizing with lowered threshold

     Davidson diagonalization with overlap
     ethr =  1.34E-11,  avg # of iterations =  4.0

     negative rho (up, down):  4.842E-04 0.000E+00

     total cpu time spent up to now is     6326.3 secs

     total energy              =    -176.32086192 Ry
     estimated scf accuracy    <          7.4E-09 Ry

     iteration #  2     ecut=    60.00 Ry     beta= 0.70
     Davidson diagonalization with overlap
     ethr =  2.30E-11,  avg # of iterations =  2.0

     negative rho (up, down):  4.842E-04 0.000E+00

     total cpu time spent up to now is     6331.7 secs

     total energy              =    -176.32086192 Ry
     estimated scf accuracy    <          5.1E-10 Ry

     iteration #  3     ecut=    60.00 Ry     beta= 0.70
     Davidson diagonalization with overlap
     ethr =  1.59E-12,  avg # of iterations =  2.1

     negative rho (up, down):  4.842E-04 0.000E+00

     total cpu time spent up to now is     6337.3 secs

     total energy              =    -176.32086192 Ry
     estimated scf accuracy    <          1.1E-10 Ry

     iteration #  4     ecut=    60.00 Ry     beta= 0.70
     Davidson diagonalization with overlap
     ethr =  3.31E-13,  avg # of iterations =  2.1

     negative rho (up, down):  4.842E-04 0.000E+00

     total cpu time spent up to now is     6342.9 secs

     total energy              =    -176.32086192 Ry
     estimated scf accuracy    <          5.4E-12 Ry

     iteration #  5     ecut=    60.00 Ry     beta= 0.70
     Davidson diagonalization with overlap
     ethr =  1.00E-13,  avg # of iterations =  1.0

     negative rho (up, down):  4.842E-04 0.000E+00

     total cpu time spent up to now is     6347.0 secs

     End of self-consistent calculation

          k = 0.0000 0.0000 0.0000 ( 18047 PWs)   bands (ev):

   -24.6494 -24.2324 -23.4477 -23.0838 -12.0262 -11.8842 -11.8758 -11.8127
   -10.1097  -9.0471  -7.5400  -7.0156  -6.4285  -6.4099  -6.3233  -6.1817

          k =-0.0153 0.2863 0.0000 ( 18132 PWs)   bands (ev):

   -24.5134 -24.1007 -23.6181 -23.2480 -12.1499 -12.1036 -11.6417 -11.5797
    -9.8785  -8.9636  -7.7400  -7.3446  -6.5413  -6.4422  -6.2127  -6.1011

          k = 0.0307-0.5725 0.0000 ( 18166 PWs)   bands (ev):

   -24.2869 -23.9013 -23.8555 -23.5024 -12.2162 -12.2009 -11.5075 -11.4301
    -9.5695  -8.8339  -8.0018  -7.7438  -6.5947  -6.4436  -6.1216  -6.0273

          k = 0.2575-0.1328 0.0000 ( 18109 PWs)   bands (ev):

   -24.5112 -24.0986 -23.6198 -23.2497 -12.1671 -12.1247 -11.6258 -11.5758
    -9.8754  -8.9645  -7.7345  -7.3381  -6.5387  -6.4409  -6.2068  -6.1019

          k = 0.2421 0.1535 0.0000 ( 18132 PWs)   bands (ev):

   -24.5128 -24.1056 -23.6183 -23.2426 -12.0697 -11.9200 -11.8936 -11.6814
    -9.7762  -8.8627  -7.9009  -7.3997  -6.4058  -6.3157  -6.2426  -6.2245

          k = 0.2882-0.7053 0.0000 ( 18147 PWs)   bands (ev):

   -24.2855 -23.9200 -23.8480 -23.4915 -12.1883 -12.1456 -11.6291 -11.4862
    -9.4060  -8.6191  -8.2712  -7.8561  -6.5081  -6.3956  -6.1184  -6.0568

          k = 0.2728-0.4190 0.0000 ( 18128 PWs)   bands (ev):

   -24.2827 -23.9018 -23.8543 -23.5062 -12.2362 -12.2326 -11.4840 -11.4247
    -9.5442  -8.8011  -8.0198  -7.7909  -6.5768  -6.4491  -6.0877  -6.0337

          k =-0.5150 0.2656 0.0000 ( 18184 PWs)   bands (ev):

   -24.2777 -23.9034 -23.8524 -23.5108 -12.2462 -12.2268 -11.4964 -11.4227
    -9.5696  -8.8405  -7.9870  -7.7188  -6.5891  -6.4435  -6.1107  -6.0262

          k =-0.5303 0.5518 0.0000 ( 18128 PWs)   bands (ev):

   -24.2808 -23.9203 -23.8475 -23.4955 -12.2039 -12.1615 -11.6208 -11.4803
    -9.4073  -8.6269  -8.2626  -7.8431  -6.5073  -6.3934  -6.1105  -6.0577

          k =-0.4843-0.3070 0.0000 ( 18166 PWs)   bands (ev):

   -24.2827 -23.9388 -23.8403 -23.4824 -12.1129 -11.9486 -11.8907 -11.5824
    -9.2220  -8.6910  -8.1721  -8.0356  -6.3633  -6.2992  -6.1918  -6.1737

     highest occupied level (ev):    -6.0262

!    total energy              =    -176.32086192 Ry

     total all-electron energy =      -611.708407 Ry
     estimated scf accuracy    <          9.0E-13 Ry

     The total energy is the sum of the following terms:
     one-electron contribution =    -667.77146516 Ry
     hartree contribution      =     341.92153590 Ry
     xc contribution           =     -35.62853552 Ry
     ewald contribution        =     223.50853612 Ry
     one-center paw contrib.   =     -38.35093327 Ry

     convergence has been achieved in   5 iterations

     negative rho (up, down):  4.842E-04 0.000E+00

     Forces acting on atoms (cartesian axes, Ry/au):

     atom    1 type  1   force =     0.00000085    0.00000213   -0.00000389
     atom    2 type  1   force =     0.00000014    0.00000171    0.00001140
     atom    3 type  1   force =     0.00000135    0.00000374   -0.00000065
     atom    4 type  1   force =    -0.00002265   -0.00001051   -0.00000027
     atom    5 type  1   force =    -0.00000696    0.00000860   -0.00001742
     atom    6 type  1   force =     0.00000332   -0.00000296    0.00000242
     atom    7 type  1   force =     0.00000994   -0.00000262    0.00000763
     atom    8 type  1   force =     0.00001268    0.00000131    0.00000125
     atom    9 type  2   force =    -0.00000806    0.00000388   -0.00001349
     atom   10 type  2   force =     0.00001844    0.00000529    0.00001352
     atom   11 type  2   force =     0.00000639   -0.00000810    0.00000035
     atom   12 type  2   force =    -0.00001544   -0.00000249   -0.00000085

     Total force =     0.000052     Total SCF correction =     0.000001
     Energy error            =      5.6E-09 Ry
     Gradient error          =      2.3E-05 Ry/Bohr

     number of scf cycles    =  95
     number of bfgs steps    =  93

     energy             old  =    -176.3208619161 Ry
     energy             new  =    -176.3208619217 Ry

     CASE: energy            _new < energy            _old

     new trust radius        =       0.0002463330 bohr
     new conv_thr            =            1.0E-12 Ry


ATOMIC_POSITIONS (angstrom)
H             4.4730743466        3.7450476391       11.2230747486
H             5.3208152435        4.3039420220       10.0181253888
H             3.2971698496        1.1564004716        8.0886818542
H             3.1456991561        2.8647873888        9.3218584620
H             3.9933597615        3.4236286135        8.1168721929
H             6.3318329798        3.9813985275        8.0943915542
H             3.0061410155        1.8179850834       11.2512300237
H             2.1345113131        3.1874144708       11.2455002916
O             5.2904661219        4.2813450694       11.0189820903
O             3.1759523813        2.8873722502        8.3209986458
O             5.4275726317        4.3691757859        8.2645634947
O             3.0387916501        2.7996094358       11.0754073311



     Writing config-only to output data dir ./output/f-BH.save/
     NEW-OLD atomic charge density approx. for the potential

     negative rho (up, down):  4.842E-04 0.000E+00

     total cpu time spent up to now is     6359.7 secs

     per-process dynamical memory:   238.9 Mb

     Self-consistent Calculation

     iteration #  1     ecut=    60.00 Ry     beta= 0.70
     Davidson diagonalization with overlap
     ethr =  1.00E-06,  avg # of iterations =  2.0

     Threshold (ethr) on eigenvalues was too large:
     Diagonalizing with lowered threshold

     Davidson diagonalization with overlap
     ethr =  1.37E-11,  avg # of iterations =  4.0

     negative rho (up, down):  4.842E-04 0.000E+00

     total cpu time spent up to now is     6371.7 secs

     total energy              =    -176.32086192 Ry
     estimated scf accuracy    <          7.5E-09 Ry

     iteration #  2     ecut=    60.00 Ry     beta= 0.70
     Davidson diagonalization with overlap
     ethr =  2.36E-11,  avg # of iterations =  2.0

     negative rho (up, down):  4.842E-04 0.000E+00

     total cpu time spent up to now is     6376.9 secs

     total energy              =    -176.32086192 Ry
     estimated scf accuracy    <          4.1E-10 Ry

     iteration #  3     ecut=    60.00 Ry     beta= 0.70
     Davidson diagonalization with overlap
     ethr =  1.28E-12,  avg # of iterations =  2.0

     negative rho (up, down):  4.842E-04 0.000E+00

     total cpu time spent up to now is     6382.3 secs

     total energy              =    -176.32086193 Ry
     estimated scf accuracy    <          6.1E-11 Ry

     iteration #  4     ecut=    60.00 Ry     beta= 0.70
     Davidson diagonalization with overlap
     ethr =  1.91E-13,  avg # of iterations =  2.4

     negative rho (up, down):  4.842E-04 0.000E+00

     total cpu time spent up to now is     6388.0 secs

     total energy              =    -176.32086193 Ry
     estimated scf accuracy    <          7.4E-12 Ry

     iteration #  5     ecut=    60.00 Ry     beta= 0.70
     Davidson diagonalization with overlap
     ethr =  1.00E-13,  avg # of iterations =  1.0

     negative rho (up, down):  4.842E-04 0.000E+00

     total cpu time spent up to now is     6392.2 secs

     End of self-consistent calculation

          k = 0.0000 0.0000 0.0000 ( 18047 PWs)   bands (ev):

   -24.6493 -24.2324 -23.4477 -23.0838 -12.0263 -11.8842 -11.8759 -11.8128
   -10.1096  -9.0470  -7.5400  -7.0156  -6.4285  -6.4099  -6.3234  -6.1817

          k =-0.0153 0.2863 0.0000 ( 18132 PWs)   bands (ev):

   -24.5134 -24.1007 -23.6181 -23.2479 -12.1500 -12.1036 -11.6418 -11.5797
    -9.8784  -8.9635  -7.7400  -7.3446  -6.5414  -6.4422  -6.2127  -6.1011

          k = 0.0307-0.5725 0.0000 ( 18166 PWs)   bands (ev):

   -24.2869 -23.9013 -23.8555 -23.5023 -12.2163 -12.2010 -11.5076 -11.4301
    -9.5695  -8.8339  -8.0018  -7.7438  -6.5947  -6.4436  -6.1216  -6.0273

          k = 0.2575-0.1328 0.0000 ( 18109 PWs)   bands (ev):

   -24.5112 -24.0986 -23.6198 -23.2496 -12.1672 -12.1247 -11.6259 -11.5758
    -9.8754  -8.9644  -7.7345  -7.3381  -6.5387  -6.4409  -6.2068  -6.1019

          k = 0.2421 0.1535 0.0000 ( 18132 PWs)   bands (ev):

   -24.5128 -24.1056 -23.6183 -23.2426 -12.0698 -11.9201 -11.8937 -11.6815
    -9.7762  -8.8627  -7.9009  -7.3997  -6.4058  -6.3157  -6.2426  -6.2245

          k = 0.2882-0.7053 0.0000 ( 18147 PWs)   bands (ev):

   -24.2854 -23.9200 -23.8480 -23.4915 -12.1884 -12.1457 -11.6291 -11.4862
    -9.4060  -8.6190  -8.2712  -7.8560  -6.5081  -6.3957  -6.1184  -6.0568

          k = 0.2728-0.4190 0.0000 ( 18128 PWs)   bands (ev):

   -24.2827 -23.9018 -23.8543 -23.5062 -12.2362 -12.2327 -11.4840 -11.4248
    -9.5442  -8.8011  -8.0198  -7.7909  -6.5768  -6.4491  -6.0877  -6.0337

          k =-0.5150 0.2656 0.0000 ( 18184 PWs)   bands (ev):

   -24.2777 -23.9034 -23.8524 -23.5108 -12.2463 -12.2269 -11.4964 -11.4227
    -9.5696  -8.8404  -7.9870  -7.7188  -6.5891  -6.4435  -6.1106  -6.0263

          k =-0.5303 0.5518 0.0000 ( 18128 PWs)   bands (ev):

   -24.2808 -23.9203 -23.8475 -23.4955 -12.2040 -12.1616 -11.6208 -11.4804
    -9.4073  -8.6269  -8.2626  -7.8431  -6.5073  -6.3934  -6.1105  -6.0577

          k =-0.4843-0.3070 0.0000 ( 18166 PWs)   bands (ev):

   -24.2827 -23.9388 -23.8403 -23.4823 -12.1129 -11.9486 -11.8908 -11.5825
    -9.2220  -8.6910  -8.1721  -8.0356  -6.3633  -6.2992  -6.1918  -6.1737

     highest occupied level (ev):    -6.0263

!    total energy              =    -176.32086193 Ry

     total all-electron energy =      -611.708407 Ry
     estimated scf accuracy    <          3.7E-13 Ry

     The total energy is the sum of the following terms:
     one-electron contribution =    -667.76995292 Ry
     hartree contribution      =     341.92075699 Ry
     xc contribution           =     -35.62851948 Ry
     ewald contribution        =     223.50778608 Ry
     one-center paw contrib.   =     -38.35093260 Ry

     convergence has been achieved in   5 iterations

     negative rho (up, down):  4.842E-04 0.000E+00

     Forces acting on atoms (cartesian axes, Ry/au):

     atom    1 type  1   force =     0.00000630    0.00000093    0.00000077
     atom    2 type  1   force =    -0.00000267    0.00000167    0.00000880
     atom    3 type  1   force =     0.00000275    0.00000063   -0.00000020
     atom    4 type  1   force =    -0.00001520   -0.00000210   -0.00000775
     atom    5 type  1   force =    -0.00000754    0.00000458   -0.00000680
     atom    6 type  1   force =    -0.00000070    0.00000011    0.00000214
     atom    7 type  1   force =     0.00000530    0.00000215    0.00000686
     atom    8 type  1   force =     0.00001256   -0.00000284    0.00000203
     atom    9 type  2   force =    -0.00000787    0.00000357   -0.00001569
     atom   10 type  2   force =     0.00001488   -0.00000033    0.00001278
     atom   11 type  2   force =     0.00000547   -0.00000457    0.00000024
     atom   12 type  2   force =    -0.00001329   -0.00000379   -0.00000318

     Total force =     0.000042     Total SCF correction =     0.000001
     Energy error            =      3.5E-09 Ry
     Gradient error          =      1.6E-05 Ry/Bohr

     number of scf cycles    =  96
     number of bfgs steps    =  94

     energy             old  =    -176.3208619217 Ry
     energy             new  =    -176.3208619252 Ry

     CASE: energy            _new < energy            _old

     new trust radius        =       0.0001042096 bohr
     new conv_thr            =            1.0E-12 Ry


ATOMIC_POSITIONS (angstrom)
H             4.4730360758        3.7450790575       11.2230504744
H             5.3208197671        4.3039544988       10.0181259596
H             3.2972094364        1.1563695494        8.0886789023
H             3.1456848641        2.8647713924        9.3218657678
H             3.9933691271        3.4236349459        8.1168655573
H             6.3318698020        3.9813611491        8.0943894133
H             3.0061277668        1.8180005016       11.2512467974
H             2.1344904205        3.1874335020       11.2455185808
O             5.2904338998        4.2813728572       11.0189769498
O             3.1759775101        2.8873622298        8.3210083335
O             5.4276081297        4.3691441008        8.2645527911
O             3.0387596513        2.7996229736       11.0754065506



     Writing config-only to output data dir ./output/f-BH.save/
     NEW-OLD atomic charge density approx. for the potential

     negative rho (up, down):  4.842E-04 0.000E+00

     total cpu time spent up to now is     6404.8 secs

     per-process dynamical memory:   215.9 Mb

     Self-consistent Calculation

     iteration #  1     ecut=    60.00 Ry     beta= 0.70
     Davidson diagonalization with overlap
     ethr =  1.00E-06,  avg # of iterations =  2.0

     Threshold (ethr) on eigenvalues was too large:
     Diagonalizing with lowered threshold

     Davidson diagonalization with overlap
     ethr =  4.90E-12,  avg # of iterations =  4.3

     negative rho (up, down):  4.842E-04 0.000E+00

     total cpu time spent up to now is     6416.8 secs

     total energy              =    -176.32086193 Ry
     estimated scf accuracy    <          3.0E-09 Ry

     iteration #  2     ecut=    60.00 Ry     beta= 0.70
     Davidson diagonalization with overlap
     ethr =  9.28E-12,  avg # of iterations =  2.0

     negative rho (up, down):  4.842E-04 0.000E+00

     total cpu time spent up to now is     6422.0 secs

     total energy              =    -176.32086193 Ry
     estimated scf accuracy    <          1.4E-10 Ry

     iteration #  3     ecut=    60.00 Ry     beta= 0.70
     Davidson diagonalization with overlap
     ethr =  4.45E-13,  avg # of iterations =  2.0

     negative rho (up, down):  4.842E-04 0.000E+00

     total cpu time spent up to now is     6427.3 secs

     total energy              =    -176.32086193 Ry
     estimated scf accuracy    <          2.2E-11 Ry

     iteration #  4     ecut=    60.00 Ry     beta= 0.70
     Davidson diagonalization with overlap
     ethr =  1.00E-13,  avg # of iterations =  2.2

     negative rho (up, down):  4.842E-04 0.000E+00

     total cpu time spent up to now is     6432.6 secs

     total energy              =    -176.32086193 Ry
     estimated scf accuracy    <          3.7E-12 Ry

     iteration #  5     ecut=    60.00 Ry     beta= 0.70
     Davidson diagonalization with overlap
     ethr =  1.00E-13,  avg # of iterations =  1.0

     negative rho (up, down):  4.842E-04 0.000E+00

     total cpu time spent up to now is     6436.8 secs

     End of self-consistent calculation

          k = 0.0000 0.0000 0.0000 ( 18047 PWs)   bands (ev):

   -24.6493 -24.2324 -23.4477 -23.0837 -12.0263 -11.8842 -11.8759 -11.8129
   -10.1096  -9.0470  -7.5399  -7.0156  -6.4285  -6.4099  -6.3233  -6.1817

          k =-0.0153 0.2863 0.0000 ( 18132 PWs)   bands (ev):

   -24.5133 -24.1007 -23.6181 -23.2479 -12.1501 -12.1037 -11.6418 -11.5798
    -9.8784  -8.9635  -7.7399  -7.3446  -6.5413  -6.4422  -6.2126  -6.1011

          k = 0.0307-0.5725 0.0000 ( 18166 PWs)   bands (ev):

   -24.2869 -23.9012 -23.8555 -23.5023 -12.2163 -12.2010 -11.5076 -11.4302
    -9.5694  -8.8338  -8.0018  -7.7437  -6.5947  -6.4436  -6.1216  -6.0273

          k = 0.2575-0.1328 0.0000 ( 18109 PWs)   bands (ev):

   -24.5112 -24.0986 -23.6198 -23.2496 -12.1672 -12.1248 -11.6259 -11.5759
    -9.8753  -8.9644  -7.7344  -7.3380  -6.5387  -6.4409  -6.2068  -6.1019

          k = 0.2421 0.1535 0.0000 ( 18132 PWs)   bands (ev):

   -24.5128 -24.1056 -23.6182 -23.2425 -12.0698 -11.9201 -11.8937 -11.6816
    -9.7761  -8.8626  -7.9008  -7.3997  -6.4058  -6.3157  -6.2426  -6.2245

          k = 0.2882-0.7053 0.0000 ( 18147 PWs)   bands (ev):

   -24.2854 -23.9200 -23.8480 -23.4915 -12.1884 -12.1457 -11.6292 -11.4863
    -9.4059  -8.6190  -8.2712  -7.8560  -6.5081  -6.3957  -6.1184  -6.0568

          k = 0.2728-0.4190 0.0000 ( 18128 PWs)   bands (ev):

   -24.2827 -23.9018 -23.8543 -23.5062 -12.2363 -12.2327 -11.4841 -11.4248
    -9.5441  -8.8010  -8.0198  -7.7909  -6.5768  -6.4491  -6.0877  -6.0336

          k =-0.5150 0.2656 0.0000 ( 18184 PWs)   bands (ev):

   -24.2777 -23.9034 -23.8524 -23.5108 -12.2463 -12.2269 -11.4965 -11.4228
    -9.5696  -8.8404  -7.9869  -7.7187  -6.5891  -6.4435  -6.1106  -6.0262

          k =-0.5303 0.5518 0.0000 ( 18128 PWs)   bands (ev):

   -24.2807 -23.9203 -23.8475 -23.4955 -12.2040 -12.1616 -11.6209 -11.4804
    -9.4072  -8.6268  -8.2625  -7.8430  -6.5073  -6.3934  -6.1105  -6.0577

          k =-0.4843-0.3070 0.0000 ( 18166 PWs)   bands (ev):

   -24.2827 -23.9388 -23.8403 -23.4823 -12.1129 -11.9486 -11.8908 -11.5825
    -9.2219  -8.6909  -8.1720  -8.0355  -6.3633  -6.2992  -6.1918  -6.1737

     highest occupied level (ev):    -6.0262

!    total energy              =    -176.32086193 Ry

     total all-electron energy =      -611.708407 Ry
     estimated scf accuracy    <          2.1E-13 Ry

     The total energy is the sum of the following terms:
     one-electron contribution =    -667.77003306 Ry
     hartree contribution      =     341.92080489 Ry
     xc contribution           =     -35.62852444 Ry
     ewald contribution        =     223.50782265 Ry
     one-center paw contrib.   =     -38.35093198 Ry

     convergence has been achieved in   5 iterations

     negative rho (up, down):  4.842E-04 0.000E+00

     Forces acting on atoms (cartesian axes, Ry/au):

     atom    1 type  1   force =     0.00000551   -0.00000042    0.00000199
     atom    2 type  1   force =    -0.00000357    0.00000143    0.00000194
     atom    3 type  1   force =     0.00000365   -0.00000102   -0.00000093
     atom    4 type  1   force =    -0.00000774    0.00000255   -0.00000811
     atom    5 type  1   force =    -0.00000527    0.00000229    0.00000142
     atom    6 type  1   force =    -0.00000138    0.00000109    0.00000210
     atom    7 type  1   force =     0.00000182    0.00000257    0.00000547
     atom    8 type  1   force =     0.00000757   -0.00000382    0.00000210
     atom    9 type  2   force =    -0.00000604    0.00000353   -0.00000932
     atom   10 type  2   force =     0.00000734   -0.00000470    0.00000570
     atom   11 type  2   force =     0.00000363   -0.00000032    0.00000071
     atom   12 type  2   force =    -0.00000553   -0.00000318   -0.00000307

     Total force =     0.000026     Total SCF correction =     0.000001
     Energy error            =      2.0E-09 Ry
     Gradient error          =      9.3E-06 Ry/Bohr

     bfgs converged in  97 scf cycles and  95 bfgs steps
     (criteria: energy <  1.0E-04 Ry, force <  1.0E-05 Ry/Bohr)

     End of BFGS Geometry Optimization

     Final energy             =    -176.3208619272 Ry

     File ./output/f-BH.bfgs deleted, as requested
Begin final coordinates

ATOMIC_POSITIONS (angstrom)
H             4.4730360758        3.7450790575       11.2230504744
H             5.3208197671        4.3039544988       10.0181259596
H             3.2972094364        1.1563695494        8.0886789023
H             3.1456848641        2.8647713924        9.3218657678
H             3.9933691271        3.4236349459        8.1168655573
H             6.3318698020        3.9813611491        8.0943894133
H             3.0061277668        1.8180005016       11.2512467974
H             2.1344904205        3.1874335020       11.2455185808
O             5.2904338998        4.2813728572       11.0189769498
O             3.1759775101        2.8873622298        8.3210083335
O             5.4276081297        4.3691441008        8.2645527911
O             3.0387596513        2.7996229736       11.0754065506
End final coordinates



     Writing all to output data dir ./output/f-BH.save/

     init_run     :      9.59s CPU      9.89s WALL (       1 calls)
     electrons    :   5147.92s CPU   5210.60s WALL (      97 calls)
     update_pot   :    609.42s CPU    613.09s WALL (      96 calls)
     forces       :    547.79s CPU    554.44s WALL (      97 calls)

     Called by init_run:
     wfcinit      :      2.00s CPU      2.01s WALL (       1 calls)
     potinit      :      3.53s CPU      3.66s WALL (       1 calls)
     hinit0       :      3.77s CPU      3.85s WALL (       1 calls)

     Called by electrons:
     c_bands      :   3654.65s CPU   3659.12s WALL (     903 calls)
     sum_band     :    695.08s CPU    713.49s WALL (     903 calls)
     v_of_rho     :    529.10s CPU    556.08s WALL (     944 calls)
     newd         :    158.94s CPU    174.82s WALL (     944 calls)
     PAW_pot      :     91.13s CPU     91.15s WALL (    1040 calls)
     mix_rho      :     40.81s CPU     41.64s WALL (     903 calls)

     Called by c_bands:
     init_us_2    :     38.51s CPU     38.61s WALL (    6000 calls)
     init_us_2:cp :     38.46s CPU     38.59s WALL (    6000 calls)
     cegterg      :   3577.41s CPU   3581.76s WALL (    2709 calls)

     Called by *egterg:
     cdiaghg      :      2.72s CPU      2.74s WALL (    9429 calls)
     h_psi        :   2474.45s CPU   2478.28s WALL (    9888 calls)
     s_psi        :    286.32s CPU    286.50s WALL (    9888 calls)
     g_psi        :     12.30s CPU     12.35s WALL (    7176 calls)

     Called by h_psi:
     h_psi:calbec :    284.47s CPU    284.55s WALL (    9888 calls)
     vloc_psi     :   1884.43s CPU   1888.07s WALL (    9888 calls)
     add_vuspsi   :    291.84s CPU    291.95s WALL (    9888 calls)

     General routines
     calbec       :    420.50s CPU    420.68s WALL (   14049 calls)
     fft          :    251.10s CPU    251.37s WALL (   13297 calls)
     ffts         :     14.86s CPU     14.87s WALL (    1847 calls)
     fftw         :   1762.93s CPU   1766.60s WALL (  306728 calls)
     interpolate  :     39.79s CPU     39.83s WALL (     944 calls)

     Parallel routines

     PWSCF        :      1h46m CPU      1h47m WALL


   This run was terminated on:  13: 1:14   7Jan2024            

=------------------------------------------------------------------------------=
   JOB DONE.
=------------------------------------------------------------------------------=
