
     Program PWSCF v.7.0 starts on  5Jan2024 at 20:58:19 

     This program is part of the open-source Quantum ESPRESSO suite
     for quantum simulation of materials; please cite
         "P. Giannozzi et al., J. Phys.:Condens. Matter 21 395502 (2009);
         "P. Giannozzi et al., J. Phys.:Condens. Matter 29 465901 (2017);
         "P. Giannozzi et al., J. Chem. Phys. 152 154105 (2020);
          URL http://www.quantum-espresso.org", 
     in publications or presentations arising from this work. More details at
     http://www.quantum-espresso.org/quote

     Parallel version (MPI), running on     4 processors

     MPI processes distributed on     1 nodes
     K-points division:     npool     =       4
     14592 MiB available memory on the printing compute node when the environment starts

     Waiting for input...
     Reading input from standard input
Warning: card &CELL ignored
Warning: card   CELL_DYNAMICS = 'BFGS' ignored
Warning: card   PRESS = 0 ignored
Warning: card   PRESS_CONV_THR = 0.01 ignored
Warning: card   CELL_DOFREE = '2DXY' ignored
Warning: card / ignored

     Current dimensions of program PWSCF are:
     Max number of different atomic species (ntypx) = 10
     Max number of k-points (npk) =  40000
     Max angular momentum in pseudopotentials (lmaxx) =  4
     file H.pbe-kjpaw_psl.1.0.0.UPF: wavefunction(s)  1S renormalized
     file O.pbe-nl-kjpaw_psl.1.0.0.UPF: wavefunction(s)  2S 2P renormalized

     Subspace diagonalization in iterative solution of the eigenvalue problem:
     a serial algorithm will be used


     G-vector sticks info
     --------------------
     sticks:   dense  smooth     PW     G-vecs:    dense   smooth      PW
     Sum        2591    1289    371               410247   144983   22287

     Using Slab Decomposition



     bravais-lattice index     =            0
     lattice parameter (alat)  =       8.8254  a.u.
     unit-cell volume          =    2310.3531 (a.u.)^3
     number of atoms/cell      =           12
     number of atomic types    =            2
     number of electrons       =        32.00
     number of Kohn-Sham states=           16
     kinetic-energy cutoff     =      60.0000  Ry
     charge density cutoff     =     480.0000  Ry
     scf convergence threshold =      1.0E-10
     mixing beta               =       0.7000
     number of iterations used =            8  plain     mixing
     energy convergence thresh.=      1.0E-04
     force convergence thresh. =      1.0E-05
     Exchange-correlation= SLA  PW   PBX  PBC
                           (   1   4   3   4   0   0   0)
     nstep                     =         2000


     celldm(1)=   8.825399  celldm(2)=   0.000000  celldm(3)=   0.000000
     celldm(4)=   0.000000  celldm(5)=   0.000000  celldm(6)=   0.000000

     crystal axes: (cart. coord. in units of alat)
               a(1) = (   0.998567   0.053521   0.000000 )  
               a(2) = (   0.463144   0.898119   0.000000 )  
               a(3) = (   0.000000   0.000000   3.854225 )  

     reciprocal axes: (cart. coord. in units 2 pi/alat)
               b(1) = (  1.029901 -0.531102  0.000000 )  
               b(2) = ( -0.061374  1.145088  0.000000 )  
               b(3) = (  0.000000  0.000000  0.259456 )  


     PseudoPot. # 1 for H  read from file:
     /home/sigma/Program/pot-QE/pslibrary-master/pbe/PSEUDOPOTENTIALS/H.pbe-kjpaw_psl.1.0.0.UPF
     MD5 check sum: 71c94cef2405c588d6d9331d5980da35
     Pseudo is Projector augmented-wave, Zval =  1.0
     Generated using 'atomic' code by A. Dal Corso  v.6.7MaX
     Shape of augmentation charge: PSQ
     Using radial grid of  929 points,  2 beta functions with: 
                l(1) =   0
                l(2) =   0
     Q(r) pseudized with 0 coefficients 


     PseudoPot. # 2 for O  read from file:
     /home/sigma/Program/pot-QE/pslibrary-master/pbe/PSEUDOPOTENTIALS/O.pbe-nl-kjpaw_psl.1.0.0.UPF
     MD5 check sum: bb2ef7cfed4ee2ae0e527fd084996761
     Pseudo is Projector augmented-wave + core cor, Zval =  6.0
     Generated using 'atomic' code by A. Dal Corso  v.6.7MaX
     Shape of augmentation charge: PSQ
     Using radial grid of 1095 points,  4 beta functions with: 
                l(1) =   0
                l(2) =   0
                l(3) =   1
                l(4) =   1
     Q(r) pseudized with 0 coefficients 


     atomic species   valence    mass     pseudopotential
        H              1.00     1.00798     H ( 1.00)
        O              6.00    15.99940     O ( 1.00)

     No symmetry found



   Cartesian axes

     site n.     atom                  positions (alat units)
         1           H   tau(   1) = (   0.9014237   0.8236466   2.3755338  )
         2           H   tau(   2) = (   1.1119236   0.8918517   2.1325587  )
         3           H   tau(   3) = (   0.6428457   0.2962824   1.7341098  )
         4           H   tau(   4) = (   0.7101726   0.5439017   1.9141009  )
         5           H   tau(   5) = (   0.9407812   0.8163090   1.8653946  )
         6           H   tau(   6) = (   1.3382775   0.9116253   1.8025440  )
         7           H   tau(   7) = (   0.7854541   0.3487565   2.3121748  )
         8           H   tau(   8) = (   0.3748011   0.6285740   2.4147958  )
         9           O   tau(   9) = (   1.0493373   0.8970723   2.4361198  )
        10           O   tau(  10) = (   0.7751039   0.6359392   1.7642392  )
        11           O   tau(  11) = (   1.1153650   0.9400345   1.7383267  )
        12           O   tau(  12) = (   0.6684984   0.5778795   2.3569370  )

     number of k points=    10
                       cart. coord. in units 2pi/alat
        k(    1) = (   0.0000000   0.0000000   0.0000000), wk =   0.1250000
        k(    2) = (  -0.0153435   0.2862719   0.0000000), wk =   0.2500000
        k(    3) = (   0.0306869  -0.5725439   0.0000000), wk =   0.1250000
        k(    4) = (   0.2574753  -0.1327754   0.0000000), wk =   0.2500000
        k(    5) = (   0.2421318   0.1534965   0.0000000), wk =   0.2500000
        k(    6) = (   0.2881622  -0.7053193   0.0000000), wk =   0.2500000
        k(    7) = (   0.2728187  -0.4190474   0.0000000), wk =   0.2500000
        k(    8) = (  -0.5149505   0.2655508   0.0000000), wk =   0.1250000
        k(    9) = (  -0.5302940   0.5518228   0.0000000), wk =   0.2500000
        k(   10) = (  -0.4842636  -0.3069931   0.0000000), wk =   0.1250000

     Dense  grid:   410247 G-vectors     FFT dimensions: (  64,  64, 240)

     Smooth grid:   144983 G-vectors     FFT dimensions: (  45,  45, 180)

     Estimated max dynamical RAM per process >     385.43 MB

     Estimated total dynamical RAM >       1.21 GB

     Initial potential from superposition of free atoms

     starting charge      31.9999, renormalised to      32.0000

     negative rho (up, down):  3.877E-04 0.000E+00
     Starting wfcs are   24 randomized atomic wfcs
     Checking if some PAW data can be deallocated... 

     total cpu time spent up to now is       10.1 secs

     per-process dynamical memory:   179.6 Mb

     Self-consistent Calculation

     iteration #  1     ecut=    60.00 Ry     beta= 0.70
     Davidson diagonalization with overlap
     ethr =  1.00E-02,  avg # of iterations =  2.0

     negative rho (up, down):  5.048E-04 0.000E+00

     total cpu time spent up to now is       15.8 secs

     total energy              =    -174.73520751 Ry
     estimated scf accuracy    <       1.77203985 Ry

     iteration #  2     ecut=    60.00 Ry     beta= 0.70
     Davidson diagonalization with overlap
     ethr =  5.54E-03,  avg # of iterations =  5.0

     negative rho (up, down):  5.304E-04 0.000E+00

     total cpu time spent up to now is       23.0 secs

     total energy              =    -174.98063466 Ry
     estimated scf accuracy    <       3.29030717 Ry

     iteration #  3     ecut=    60.00 Ry     beta= 0.70
     Davidson diagonalization with overlap
     ethr =  5.54E-03,  avg # of iterations =  3.7

     negative rho (up, down):  4.417E-04 0.000E+00

     total cpu time spent up to now is       29.1 secs

     total energy              =    -175.52316177 Ry
     estimated scf accuracy    <       0.16574179 Ry

     iteration #  4     ecut=    60.00 Ry     beta= 0.70
     Davidson diagonalization with overlap
     ethr =  5.18E-04,  avg # of iterations =  3.8

     negative rho (up, down):  4.570E-04 0.000E+00

     total cpu time spent up to now is       35.3 secs

     total energy              =    -175.57819157 Ry
     estimated scf accuracy    <       0.01669411 Ry

     iteration #  5     ecut=    60.00 Ry     beta= 0.70
     Davidson diagonalization with overlap
     ethr =  5.22E-05,  avg # of iterations =  5.0

     negative rho (up, down):  4.750E-04 0.000E+00

     total cpu time spent up to now is       41.9 secs

     total energy              =    -175.58287949 Ry
     estimated scf accuracy    <       0.01187865 Ry

     iteration #  6     ecut=    60.00 Ry     beta= 0.70
     Davidson diagonalization with overlap
     ethr =  3.71E-05,  avg # of iterations =  2.9

     negative rho (up, down):  4.786E-04 0.000E+00

     total cpu time spent up to now is       47.1 secs

     total energy              =    -175.58408190 Ry
     estimated scf accuracy    <       0.00162094 Ry

     iteration #  7     ecut=    60.00 Ry     beta= 0.70
     Davidson diagonalization with overlap
     ethr =  5.07E-06,  avg # of iterations =  4.2

     negative rho (up, down):  4.789E-04 0.000E+00

     total cpu time spent up to now is       53.0 secs

     total energy              =    -175.58435003 Ry
     estimated scf accuracy    <       0.00053642 Ry

     iteration #  8     ecut=    60.00 Ry     beta= 0.70
     Davidson diagonalization with overlap
     ethr =  1.68E-06,  avg # of iterations =  2.3

     negative rho (up, down):  4.797E-04 0.000E+00

     total cpu time spent up to now is       58.0 secs

     total energy              =    -175.58433442 Ry
     estimated scf accuracy    <       0.00015885 Ry

     iteration #  9     ecut=    60.00 Ry     beta= 0.70
     Davidson diagonalization with overlap
     ethr =  4.96E-07,  avg # of iterations =  3.6

     negative rho (up, down):  4.791E-04 0.000E+00

     total cpu time spent up to now is       64.3 secs

     total energy              =    -175.58438470 Ry
     estimated scf accuracy    <       0.00004539 Ry

     iteration # 10     ecut=    60.00 Ry     beta= 0.70
     Davidson diagonalization with overlap
     ethr =  1.42E-07,  avg # of iterations =  3.7

     negative rho (up, down):  4.787E-04 0.000E+00

     total cpu time spent up to now is       69.6 secs

     total energy              =    -175.58438597 Ry
     estimated scf accuracy    <       0.00001884 Ry

     iteration # 11     ecut=    60.00 Ry     beta= 0.70
     Davidson diagonalization with overlap
     ethr =  5.89E-08,  avg # of iterations =  2.4

     negative rho (up, down):  4.787E-04 0.000E+00

     total cpu time spent up to now is       74.8 secs

     total energy              =    -175.58438820 Ry
     estimated scf accuracy    <       0.00000133 Ry

     iteration # 12     ecut=    60.00 Ry     beta= 0.70
     Davidson diagonalization with overlap
     ethr =  4.16E-09,  avg # of iterations =  5.4

     negative rho (up, down):  4.789E-04 0.000E+00

     total cpu time spent up to now is       82.4 secs

     total energy              =    -175.58438917 Ry
     estimated scf accuracy    <       0.00000169 Ry

     iteration # 13     ecut=    60.00 Ry     beta= 0.70
     Davidson diagonalization with overlap
     ethr =  4.16E-09,  avg # of iterations =  2.8

     negative rho (up, down):  4.789E-04 0.000E+00

     total cpu time spent up to now is       87.2 secs

     total energy              =    -175.58438912 Ry
     estimated scf accuracy    <       0.00000039 Ry

     iteration # 14     ecut=    60.00 Ry     beta= 0.70
     Davidson diagonalization with overlap
     ethr =  1.20E-09,  avg # of iterations =  4.1

     negative rho (up, down):  4.789E-04 0.000E+00

     total cpu time spent up to now is       92.8 secs

     total energy              =    -175.58438924 Ry
     estimated scf accuracy    <       0.00000006 Ry

     iteration # 15     ecut=    60.00 Ry     beta= 0.70
     Davidson diagonalization with overlap
     ethr =  1.72E-10,  avg # of iterations =  2.8

     negative rho (up, down):  4.789E-04 0.000E+00

     total cpu time spent up to now is       98.1 secs

     total energy              =    -175.58438924 Ry
     estimated scf accuracy    <       0.00000004 Ry

     iteration # 16     ecut=    60.00 Ry     beta= 0.70
     Davidson diagonalization with overlap
     ethr =  1.18E-10,  avg # of iterations =  3.3

     negative rho (up, down):  4.789E-04 0.000E+00

     total cpu time spent up to now is      102.8 secs

     total energy              =    -175.58438924 Ry
     estimated scf accuracy    <       0.00000001 Ry

     iteration # 17     ecut=    60.00 Ry     beta= 0.70
     Davidson diagonalization with overlap
     ethr =  3.62E-11,  avg # of iterations =  2.4

     negative rho (up, down):  4.789E-04 0.000E+00

     total cpu time spent up to now is      107.7 secs

     total energy              =    -175.58438924 Ry
     estimated scf accuracy    <          2.0E-09 Ry

     iteration # 18     ecut=    60.00 Ry     beta= 0.70
     Davidson diagonalization with overlap
     ethr =  6.40E-12,  avg # of iterations =  3.7

     negative rho (up, down):  4.789E-04 0.000E+00

     total cpu time spent up to now is      113.3 secs

     total energy              =    -175.58438924 Ry
     estimated scf accuracy    <          2.0E-10 Ry

     iteration # 19     ecut=    60.00 Ry     beta= 0.70
     Davidson diagonalization with overlap
     ethr =  6.17E-13,  avg # of iterations =  4.4

     negative rho (up, down):  4.789E-04 0.000E+00

     total cpu time spent up to now is      119.3 secs

     End of self-consistent calculation

          k = 0.0000 0.0000 0.0000 ( 18047 PWs)   bands (ev):

   -26.1847 -24.9887 -23.7026 -21.3763 -14.5131 -12.6041 -11.6270 -10.6977
    -9.9507  -9.0227  -8.3157  -7.1488  -6.8736  -6.3931  -5.8820  -5.4725

          k =-0.0153 0.2863 0.0000 ( 18132 PWs)   bands (ev):

   -26.0888 -24.9562 -23.8827 -21.4481 -14.2154 -12.5639 -11.6102 -10.5821
    -9.7768  -9.2283  -8.4136  -7.3579  -7.2944  -6.2982  -6.1182  -5.4425

          k = 0.0307-0.5725 0.0000 ( 18166 PWs)   bands (ev):

   -25.9777 -24.9230 -24.0742 -21.5202 -13.9168 -12.4775 -11.5970 -10.3866
    -9.8318  -9.3406  -8.4348  -7.6901  -7.5812  -6.3210  -6.1887  -5.4527

          k = 0.2575-0.1328 0.0000 ( 18109 PWs)   bands (ev):

   -26.1544 -24.9689 -23.7468 -21.4082 -14.5156 -12.6518 -11.7803 -10.6086
    -9.7696  -9.0136  -8.2959  -7.5604  -6.8441  -6.4930  -5.6264  -5.4855

          k = 0.2421 0.1535 0.0000 ( 18132 PWs)   bands (ev):

   -26.0755 -24.9458 -23.9071 -21.4789 -14.1786 -12.5974 -11.3313 -10.5541
   -10.1060  -9.2195  -8.4048  -7.3326  -6.9774  -6.3638  -6.2767  -5.4540

          k = 0.2882-0.7053 0.0000 ( 18147 PWs)   bands (ev):

   -25.9621 -24.9123 -24.1003 -21.5508 -13.8859 -12.5026 -11.3779 -10.3616
    -9.9032  -9.5145  -8.4537  -7.6736  -7.3658  -6.3222  -6.2663  -5.4531

          k = 0.2728-0.4190 0.0000 ( 18128 PWs)   bands (ev):

   -26.0545 -24.9360 -23.9300 -21.4801 -14.2365 -12.5869 -11.7828 -10.4914
    -9.4796  -9.2116  -8.3475  -7.9468  -7.3777  -6.2726  -5.8053  -5.4139

          k =-0.5150 0.2656 0.0000 ( 18184 PWs)   bands (ev):

   -26.1230 -24.9488 -23.7919 -21.4402 -14.5181 -12.7032 -11.9117 -10.5377
    -9.5797  -9.0096  -8.2514  -7.8824  -6.7838  -6.5836  -5.5162  -5.4354

          k =-0.5303 0.5518 0.0000 ( 18128 PWs)   bands (ev):

   -26.0406 -24.9253 -23.9550 -21.5110 -14.1990 -12.6204 -11.5713 -10.4450
    -9.7906  -9.2406  -8.3718  -7.6256  -7.3545  -6.3110  -5.8798  -5.4344

          k =-0.4843-0.3070 0.0000 ( 18166 PWs)   bands (ev):

   -25.9459 -24.9014 -24.1271 -21.5817 -13.8480 -12.5337 -10.9774 -10.3627
   -10.2592  -9.5642  -8.4588  -7.7330  -7.0195  -6.5180  -6.2426  -5.4571

     highest occupied level (ev):    -5.4139

!    total energy              =    -175.58438924 Ry
     estimated scf accuracy    <          1.3E-11 Ry

     convergence has been achieved in  19 iterations

     negative rho (up, down):  4.789E-04 0.000E+00

     Forces acting on atoms (cartesian axes, Ry/au):

     atom    1 type  1   force =    -0.48033815   -0.25457946   -0.13717221
     atom    2 type  1   force =    -0.01489243    0.02252514    0.16675422
     atom    3 type  1   force =     0.02522369   -0.10855659   -0.02197301
     atom    4 type  1   force =    -0.09963670   -0.10218528    0.25455066
     atom    5 type  1   force =    -0.05889720   -0.07291530   -0.07824438
     atom    6 type  1   force =    -0.08757717   -0.00063356   -0.05123098
     atom    7 type  1   force =    -0.13794999    0.15708866    0.06260398
     atom    8 type  1   force =     0.12622106   -0.04315238   -0.02302593
     atom    9 type  2   force =     0.58544307    0.22589474   -0.02358138
     atom   10 type  2   force =     0.02092009    0.07893165   -0.17254788
     atom   11 type  2   force =     0.19885244    0.20375782    0.05189457
     atom   12 type  2   force =    -0.07736870   -0.10617544   -0.02802766

     Total force =     1.031831     Total SCF correction =     0.000006

     Damped Dynamics Calculation

     Entering Dynamics:    iteration =     1

ATOMIC_POSITIONS (angstrom)
H             4.1233400488        3.8007550847       11.0695187281
H             5.1902241217        4.1691816613        9.9895006770
H             3.0067595726        1.3641513887        8.0946828366
H             3.2987074563        2.5217305260        8.9850677967
H             4.3830311897        3.7991972042        8.6976771822
H             6.2342543861        4.2573581413        8.4090163849
H             3.6433886118        1.6570477459       10.8095905532
H             1.7731230227        2.9277961071       11.2734332022
O             5.0060285529        4.2301808644       11.3729202633
O             3.6236570692        2.9841754521        8.2082808526
O             5.2447822264        4.4268373535        8.1276772933
O             3.1080901925        2.6796952288       11.0023203076



     Writing config-only to output data dir ./output/f-BH.save/
     NEW-OLD atomic charge density approx. for the potential

     negative rho (up, down):  4.678E-04 0.000E+00

     total cpu time spent up to now is      132.0 secs

     per-process dynamical memory:   211.3 Mb

     Self-consistent Calculation

     iteration #  1     ecut=    60.00 Ry     beta= 0.70
     Davidson diagonalization with overlap
     ethr =  1.00E-06,  avg # of iterations = 13.2

     negative rho (up, down):  4.675E-04 0.000E+00

     total cpu time spent up to now is      149.3 secs

     total energy              =    -175.75616238 Ry
     estimated scf accuracy    <       0.06125503 Ry

     iteration #  2     ecut=    60.00 Ry     beta= 0.70
     Davidson diagonalization with overlap
     ethr =  1.91E-04,  avg # of iterations =  5.2

     negative rho (up, down):  4.954E-04 0.000E+00

     total cpu time spent up to now is      156.9 secs

     total energy              =    -175.75320244 Ry
     estimated scf accuracy    <       0.18801343 Ry

     iteration #  3     ecut=    60.00 Ry     beta= 0.70
     Davidson diagonalization with overlap
     ethr =  1.91E-04,  avg # of iterations =  4.5

     negative rho (up, down):  4.782E-04 0.000E+00

     total cpu time spent up to now is      163.1 secs

     total energy              =    -175.78381148 Ry
     estimated scf accuracy    <       0.00224877 Ry

     iteration #  4     ecut=    60.00 Ry     beta= 0.70
     Davidson diagonalization with overlap
     ethr =  7.03E-06,  avg # of iterations =  5.1

     negative rho (up, down):  4.755E-04 0.000E+00

     total cpu time spent up to now is      170.4 secs

     total energy              =    -175.78509058 Ry
     estimated scf accuracy    <       0.00346953 Ry

     iteration #  5     ecut=    60.00 Ry     beta= 0.70
     Davidson diagonalization with overlap
     ethr =  7.03E-06,  avg # of iterations =  3.6

     negative rho (up, down):  4.752E-04 0.000E+00

     total cpu time spent up to now is      175.7 secs

     total energy              =    -175.78540384 Ry
     estimated scf accuracy    <       0.00036154 Ry

     iteration #  6     ecut=    60.00 Ry     beta= 0.70
     Davidson diagonalization with overlap
     ethr =  1.13E-06,  avg # of iterations =  4.0

     negative rho (up, down):  4.748E-04 0.000E+00

     total cpu time spent up to now is      181.8 secs

     total energy              =    -175.78550377 Ry
     estimated scf accuracy    <       0.00004861 Ry

     iteration #  7     ecut=    60.00 Ry     beta= 0.70
     Davidson diagonalization with overlap
     ethr =  1.52E-07,  avg # of iterations =  2.6

     negative rho (up, down):  4.750E-04 0.000E+00

     total cpu time spent up to now is      187.2 secs

     total energy              =    -175.78550930 Ry
     estimated scf accuracy    <       0.00001195 Ry

     iteration #  8     ecut=    60.00 Ry     beta= 0.70
     Davidson diagonalization with overlap
     ethr =  3.73E-08,  avg # of iterations =  3.6

     negative rho (up, down):  4.752E-04 0.000E+00

     total cpu time spent up to now is      192.8 secs

     total energy              =    -175.78551137 Ry
     estimated scf accuracy    <       0.00000163 Ry

     iteration #  9     ecut=    60.00 Ry     beta= 0.70
     Davidson diagonalization with overlap
     ethr =  5.08E-09,  avg # of iterations =  3.9

     negative rho (up, down):  4.752E-04 0.000E+00

     total cpu time spent up to now is      198.9 secs

     total energy              =    -175.78551182 Ry
     estimated scf accuracy    <       0.00000048 Ry

     iteration # 10     ecut=    60.00 Ry     beta= 0.70
     Davidson diagonalization with overlap
     ethr =  1.49E-09,  avg # of iterations =  2.6

     negative rho (up, down):  4.752E-04 0.000E+00

     total cpu time spent up to now is      204.1 secs

     total energy              =    -175.78551185 Ry
     estimated scf accuracy    <       0.00000012 Ry

     iteration # 11     ecut=    60.00 Ry     beta= 0.70
     Davidson diagonalization with overlap
     ethr =  3.89E-10,  avg # of iterations =  2.9

     negative rho (up, down):  4.752E-04 0.000E+00

     total cpu time spent up to now is      209.3 secs

     total energy              =    -175.78551187 Ry
     estimated scf accuracy    <       0.00000001 Ry

     iteration # 12     ecut=    60.00 Ry     beta= 0.70
     Davidson diagonalization with overlap
     ethr =  3.60E-11,  avg # of iterations =  5.0

     negative rho (up, down):  4.752E-04 0.000E+00

     total cpu time spent up to now is      215.9 secs

     total energy              =    -175.78551187 Ry
     estimated scf accuracy    <          2.7E-09 Ry

     iteration # 13     ecut=    60.00 Ry     beta= 0.70
     Davidson diagonalization with overlap
     ethr =  8.58E-12,  avg # of iterations =  3.2

     negative rho (up, down):  4.752E-04 0.000E+00

     total cpu time spent up to now is      221.5 secs

     total energy              =    -175.78551187 Ry
     estimated scf accuracy    <          1.7E-10 Ry

     iteration # 14     ecut=    60.00 Ry     beta= 0.70
     Davidson diagonalization with overlap
     ethr =  5.31E-13,  avg # of iterations =  4.5

     negative rho (up, down):  4.752E-04 0.000E+00

     total cpu time spent up to now is      227.8 secs

     End of self-consistent calculation

          k = 0.0000 0.0000 0.0000 ( 18047 PWs)   bands (ev):

   -26.0715 -23.7276 -23.1029 -21.6814 -14.0992 -12.9142 -11.2106 -10.7239
   -10.3397  -8.8571  -8.1472  -7.0794  -6.7511  -6.2474  -6.0183  -5.7273

          k =-0.0153 0.2863 0.0000 ( 18132 PWs)   bands (ev):

   -25.9957 -23.6414 -23.2611 -21.8217 -13.8523 -12.8037 -11.2848 -10.5486
   -10.0586  -9.0504  -8.2850  -7.3120  -7.2032  -6.2696  -6.1311  -5.6780

          k = 0.0307-0.5725 0.0000 ( 18166 PWs)   bands (ev):

   -25.9121 -23.5594 -23.4044 -21.9758 -13.6611 -12.5811 -11.3505 -10.2918
    -9.7935  -9.3735  -8.3371  -7.7443  -7.5179  -6.2789  -6.1214  -5.6939

          k = 0.2575-0.1328 0.0000 ( 18109 PWs)   bands (ev):

   -26.0452 -23.6743 -23.1452 -21.7541 -14.1079 -12.9360 -11.5137 -10.5506
   -10.0493  -8.8609  -8.1412  -7.5303  -6.7436  -6.3363  -5.7555  -5.7308

          k = 0.2421 0.1535 0.0000 ( 18132 PWs)   bands (ev):

   -25.9863 -23.6187 -23.2822 -21.8600 -13.7954 -12.8521 -10.9065 -10.6411
   -10.3364  -9.0428  -8.2677  -7.2719  -7.0077  -6.4590  -6.1581  -5.6699

          k = 0.2882-0.7053 0.0000 ( 18147 PWs)   bands (ev):

   -25.9017 -23.5412 -23.4172 -22.0179 -13.6190 -12.6136 -11.1797 -10.2573
    -9.9047  -9.4235  -8.3389  -7.6550  -7.5012  -6.3793  -6.1066  -5.6684

          k = 0.2728-0.4190 0.0000 ( 18128 PWs)   bands (ev):

   -25.9671 -23.5824 -23.3029 -21.9014 -13.8940 -12.7851 -11.5717 -10.4157
    -9.5936  -9.0769  -8.2428  -7.9696  -7.2784  -6.1415  -5.9340  -5.6151

          k =-0.5150 0.2656 0.0000 ( 18184 PWs)   bands (ev):

   -26.0182 -23.6169 -23.1881 -21.8305 -14.1170 -12.9608 -11.7083 -10.4720
    -9.7449  -8.8712  -8.1161  -7.8831  -6.7228  -6.3992  -5.7647  -5.5515

          k =-0.5303 0.5518 0.0000 ( 18128 PWs)   bands (ev):

   -25.9574 -23.5573 -23.3243 -21.9419 -13.8387 -12.8325 -11.3928 -10.3764
    -9.8438  -9.0817  -8.2427  -7.7685  -7.2710  -6.1812  -5.9913  -5.6228

          k =-0.4843-0.3070 0.0000 ( 18166 PWs)   bands (ev):

   -25.8910 -23.5283 -23.4231 -22.0619 -13.5638 -12.6588 -10.7969 -10.3338
   -10.1937  -9.4441  -8.3382  -7.6679  -7.2964  -6.5442  -6.0903  -5.6508

     highest occupied level (ev):    -5.5515

!    total energy              =    -175.78551187 Ry
     estimated scf accuracy    <          7.2E-11 Ry

     convergence has been achieved in  14 iterations

     negative rho (up, down):  4.752E-04 0.000E+00

     Forces acting on atoms (cartesian axes, Ry/au):

     atom    1 type  1   force =    -0.02273366   -0.03861371    0.04933708
     atom    2 type  1   force =    -0.00393423    0.02574933    0.17327677
     atom    3 type  1   force =     0.03117933   -0.10282586   -0.01788995
     atom    4 type  1   force =    -0.01947604    0.00934255    0.06289393
     atom    5 type  1   force =    -0.06261383   -0.07612739   -0.08799763
     atom    6 type  1   force =    -0.04931768    0.00525317   -0.04158213
     atom    7 type  1   force =    -0.13106858    0.13779295    0.06284308
     atom    8 type  1   force =     0.11621823   -0.03139806   -0.02164825
     atom    9 type  2   force =     0.09657595   -0.02975284   -0.22104443
     atom   10 type  2   force =    -0.03776452   -0.00977067    0.02328946
     atom   11 type  2   force =     0.13711052    0.17410036    0.04406370
     atom   12 type  2   force =    -0.05417549   -0.06374982   -0.02554163

     Total force =     0.497994     Total SCF correction =     0.000010

     Entering Dynamics:    iteration =     2

     <vel(dt)|acc(dt)> =   0.61106931

ATOMIC_POSITIONS (angstrom)
H             4.0992724151        3.7738770857       11.0923250069
H             5.1877611517        4.1834321569       10.0857760715
H             3.0239640298        1.3067801574        8.0846242356
H             3.2858683314        2.5241480737        9.0248526877
H             4.3482758454        3.7569082274        8.6489449327
H             6.2058519740        4.2601349723        8.3856329389
H             3.5702700435        1.7342184774       10.8445602371
H             1.8380544149        2.9100281351       11.2613503855
O             5.0719733581        4.2199989769       11.2548225975
O             3.6041029311        2.9809502425        8.2163574996
O             5.3226319834        4.5244736457        8.1523965236
O             3.0773599725        2.6431566072       10.9880429613



     Writing config-only to output data dir ./output/f-BH.save/
     NEW-OLD atomic charge density approx. for the potential

     negative rho (up, down):  4.569E-04 0.000E+00

     total cpu time spent up to now is      240.6 secs

     per-process dynamical memory:   210.2 Mb

     Self-consistent Calculation

     iteration #  1     ecut=    60.00 Ry     beta= 0.70
     Davidson diagonalization with overlap
     ethr =  1.00E-06,  avg # of iterations = 12.1

     negative rho (up, down):  4.896E-04 0.000E+00

     total cpu time spent up to now is      258.2 secs

     total energy              =    -175.97497920 Ry
     estimated scf accuracy    <       0.06045969 Ry

     iteration #  2     ecut=    60.00 Ry     beta= 0.70
     Davidson diagonalization with overlap
     ethr =  1.89E-04,  avg # of iterations =  4.7

     negative rho (up, down):  4.804E-04 0.000E+00

     total cpu time spent up to now is      264.7 secs

     total energy              =    -175.98909873 Ry
     estimated scf accuracy    <       0.04754382 Ry

     iteration #  3     ecut=    60.00 Ry     beta= 0.70
     Davidson diagonalization with overlap
     ethr =  1.49E-04,  avg # of iterations =  3.0

     negative rho (up, down):  4.810E-04 0.000E+00

     total cpu time spent up to now is      270.0 secs

     total energy              =    -175.99876071 Ry
     estimated scf accuracy    <       0.00134192 Ry

     iteration #  4     ecut=    60.00 Ry     beta= 0.70
     Davidson diagonalization with overlap
     ethr =  4.19E-06,  avg # of iterations =  3.1

     negative rho (up, down):  4.833E-04 0.000E+00

     total cpu time spent up to now is      276.3 secs

     total energy              =    -175.99925007 Ry
     estimated scf accuracy    <       0.00030196 Ry

     iteration #  5     ecut=    60.00 Ry     beta= 0.70
     Davidson diagonalization with overlap
     ethr =  9.44E-07,  avg # of iterations =  3.5

     negative rho (up, down):  4.835E-04 0.000E+00

     total cpu time spent up to now is      282.0 secs

     total energy              =    -175.99931524 Ry
     estimated scf accuracy    <       0.00005044 Ry

     iteration #  6     ecut=    60.00 Ry     beta= 0.70
     Davidson diagonalization with overlap
     ethr =  1.58E-07,  avg # of iterations =  3.3

     negative rho (up, down):  4.836E-04 0.000E+00

     total cpu time spent up to now is      287.9 secs

     total energy              =    -175.99932846 Ry
     estimated scf accuracy    <       0.00000606 Ry

     iteration #  7     ecut=    60.00 Ry     beta= 0.70
     Davidson diagonalization with overlap
     ethr =  1.89E-08,  avg # of iterations =  2.7

     negative rho (up, down):  4.837E-04 0.000E+00

     total cpu time spent up to now is      293.4 secs

     total energy              =    -175.99932972 Ry
     estimated scf accuracy    <       0.00000078 Ry

     iteration #  8     ecut=    60.00 Ry     beta= 0.70
     Davidson diagonalization with overlap
     ethr =  2.43E-09,  avg # of iterations =  2.8

     negative rho (up, down):  4.837E-04 0.000E+00

     total cpu time spent up to now is      298.8 secs

     total energy              =    -175.99932988 Ry
     estimated scf accuracy    <       0.00000005 Ry

     iteration #  9     ecut=    60.00 Ry     beta= 0.70
     Davidson diagonalization with overlap
     ethr =  1.55E-10,  avg # of iterations =  4.6

     negative rho (up, down):  4.837E-04 0.000E+00

     total cpu time spent up to now is      305.1 secs

     total energy              =    -175.99932990 Ry
     estimated scf accuracy    <       0.00000001 Ry

     iteration # 10     ecut=    60.00 Ry     beta= 0.70
     Davidson diagonalization with overlap
     ethr =  4.61E-11,  avg # of iterations =  3.1

     negative rho (up, down):  4.837E-04 0.000E+00

     total cpu time spent up to now is      310.7 secs

     total energy              =    -175.99932990 Ry
     estimated scf accuracy    <          2.0E-09 Ry

     iteration # 11     ecut=    60.00 Ry     beta= 0.70
     Davidson diagonalization with overlap
     ethr =  6.38E-12,  avg # of iterations =  3.4

     negative rho (up, down):  4.837E-04 0.000E+00

     total cpu time spent up to now is      316.5 secs

     total energy              =    -175.99932990 Ry
     estimated scf accuracy    <          5.4E-10 Ry

     iteration # 12     ecut=    60.00 Ry     beta= 0.70
     Davidson diagonalization with overlap
     ethr =  1.68E-12,  avg # of iterations =  2.2

     negative rho (up, down):  4.837E-04 0.000E+00

     total cpu time spent up to now is      321.7 secs

     End of self-consistent calculation

          k = 0.0000 0.0000 0.0000 ( 18047 PWs)   bands (ev):

   -26.0805 -24.1419 -23.0411 -22.5448 -14.0806 -12.9392 -11.7828 -11.3527
   -10.3574  -8.9098  -7.8463  -7.3264  -6.8386  -6.4341  -6.2625  -5.9504

          k =-0.0153 0.2863 0.0000 ( 18132 PWs)   bands (ev):

   -26.0175 -24.0135 -23.1846 -22.7137 -14.0656 -12.6201 -11.9358 -10.9526
   -10.2248  -9.0321  -8.0375  -7.5448  -7.2184  -6.6123  -6.2133  -5.8908

          k = 0.0307-0.5725 0.0000 ( 18166 PWs)   bands (ev):

   -25.9496 -23.8337 -23.3460 -22.9175 -14.0639 -12.2467 -12.0095 -10.5218
   -10.0598  -9.3288  -8.1706  -7.9511  -7.5180  -6.5761  -6.2183  -5.8717

          k = 0.2575-0.1328 0.0000 ( 18109 PWs)   bands (ev):

   -26.0574 -24.0658 -23.0869 -22.6333 -14.1257 -12.9133 -12.1387 -10.8713
   -10.2969  -8.9043  -7.8945  -7.7594  -6.8754  -6.3093  -6.1425  -5.9641

          k = 0.2421 0.1535 0.0000 ( 18132 PWs)   bands (ev):

   -26.0147 -23.9919 -23.1989 -22.7357 -14.0586 -12.6331 -11.8018 -11.0934
   -10.2050  -9.0089  -8.0029  -7.4622  -7.2037  -6.7459  -6.2299  -5.8635

          k = 0.2882-0.7053 0.0000 ( 18147 PWs)   bands (ev):

   -25.9465 -23.7963 -23.3720 -22.9435 -14.0611 -12.2523 -11.9613 -10.6056
    -9.9828  -9.3038  -8.1595  -7.8713  -7.5647  -6.6686  -6.2148  -5.8338

          k = 0.2728-0.4190 0.0000 ( 18128 PWs)   bands (ev):

   -25.9929 -23.9127 -23.2403 -22.8173 -14.1195 -12.5852 -12.2077 -10.4986
   -10.1140  -9.0368  -8.1932  -7.9901  -7.2902  -6.3589  -6.1020  -5.8856

          k =-0.5150 0.2656 0.0000 ( 18184 PWs)   bands (ev):

   -26.0337 -23.9773 -23.1389 -22.7279 -14.1693 -12.8936 -12.3342 -10.5336
   -10.2204  -8.8992  -8.1804  -7.8432  -6.9057  -6.3459  -6.0278  -5.8839

          k =-0.5303 0.5518 0.0000 ( 18128 PWs)   bands (ev):

   -25.9899 -23.8845 -23.2600 -22.8406 -14.1127 -12.5964 -12.1342 -10.5879
   -10.1040  -9.0098  -8.1293  -7.9470  -7.3174  -6.4067  -6.1355  -5.8576

          k =-0.4843-0.3070 0.0000 ( 18166 PWs)   bands (ev):

   -25.9433 -23.7506 -23.4059 -22.9702 -14.0530 -12.2659 -11.8463 -10.7593
    -9.9486  -9.2799  -8.1270  -7.7546  -7.5843  -6.8040  -6.2182  -5.8065

     highest occupied level (ev):    -5.8065

!    total energy              =    -175.99932990 Ry
     estimated scf accuracy    <          4.4E-11 Ry

     convergence has been achieved in  12 iterations

     negative rho (up, down):  4.837E-04 0.000E+00

     Forces acting on atoms (cartesian axes, Ry/au):

     atom    1 type  1   force =     0.03110221   -0.01783400    0.04908139
     atom    2 type  1   force =     0.00148613    0.02042335    0.16153765
     atom    3 type  1   force =     0.03499011    0.00204133   -0.01788427
     atom    4 type  1   force =    -0.00274819    0.02772392    0.02016477
     atom    5 type  1   force =    -0.06855076   -0.07676685   -0.09168504
     atom    6 type  1   force =     0.07523407   -0.00038579   -0.01020966
     atom    7 type  1   force =    -0.09670565    0.06219365    0.04985692
     atom    8 type  1   force =     0.12396584   -0.04218991   -0.02766494
     atom    9 type  2   force =     0.01768620   -0.05893127   -0.20956792
     atom   10 type  2   force =    -0.00051520    0.02587470    0.06185046
     atom   11 type  2   force =    -0.03810996    0.02423515    0.01599858
     atom   12 type  2   force =    -0.07783482    0.03361571   -0.00147795

     Total force =     0.391161     Total SCF correction =     0.000006

     Entering Dynamics:    iteration =     3

     <vel(dt)|acc(dt)> =   0.92011522

ATOMIC_POSITIONS (angstrom)
H             4.0757504454        3.7382566683       11.1180451779
H             5.1866023871        4.2009644682       10.2170929354
H             3.0502602228        1.2779159804        8.0701124107
H             3.2731390582        2.5329201867        9.0668783601
H             4.2957491895        3.6962945225        8.5778148183
H             6.2271962113        4.2610235046        8.3678271166
H             3.4830431886        1.8067260017       10.8879023382
H             1.9350987130        2.8787408206       11.2409843990
O             5.1437075005        4.1998469481       11.0990875110
O             3.5972174625        2.9976560488        8.2404272429
O             5.3470157411        4.5888477549        8.1737254779
O             3.0206063311        2.6389138533       10.9797882899



     Writing config-only to output data dir ./output/f-BH.save/
     NEW-OLD atomic charge density approx. for the potential

     negative rho (up, down):  4.625E-04 0.000E+00

     total cpu time spent up to now is      334.5 secs

     per-process dynamical memory:   210.2 Mb

     Self-consistent Calculation

     iteration #  1     ecut=    60.00 Ry     beta= 0.70
     Davidson diagonalization with overlap
     ethr =  1.00E-06,  avg # of iterations = 11.3

     negative rho (up, down):  5.090E-04 0.000E+00

     total cpu time spent up to now is      351.0 secs

     total energy              =    -176.05460576 Ry
     estimated scf accuracy    <       0.09477032 Ry

     iteration #  2     ecut=    60.00 Ry     beta= 0.70
     Davidson diagonalization with overlap
     ethr =  2.96E-04,  avg # of iterations =  4.7

     negative rho (up, down):  4.992E-04 0.000E+00

     total cpu time spent up to now is      357.3 secs

     total energy              =    -176.07417629 Ry
     estimated scf accuracy    <       0.07913674 Ry

     iteration #  3     ecut=    60.00 Ry     beta= 0.70
     Davidson diagonalization with overlap
     ethr =  2.47E-04,  avg # of iterations =  3.7

     negative rho (up, down):  4.999E-04 0.000E+00

     total cpu time spent up to now is      362.6 secs

     total energy              =    -176.09091609 Ry
     estimated scf accuracy    <       0.00323029 Ry

     iteration #  4     ecut=    60.00 Ry     beta= 0.70
     Davidson diagonalization with overlap
     ethr =  1.01E-05,  avg # of iterations =  3.2

     negative rho (up, down):  5.024E-04 0.000E+00

     total cpu time spent up to now is      368.6 secs

     total energy              =    -176.09202382 Ry
     estimated scf accuracy    <       0.00055954 Ry

     iteration #  5     ecut=    60.00 Ry     beta= 0.70
     Davidson diagonalization with overlap
     ethr =  1.75E-06,  avg # of iterations =  2.1

     negative rho (up, down):  5.030E-04 0.000E+00

     total cpu time spent up to now is      373.9 secs

     total energy              =    -176.09212469 Ry
     estimated scf accuracy    <       0.00002760 Ry

     iteration #  6     ecut=    60.00 Ry     beta= 0.70
     Davidson diagonalization with overlap
     ethr =  8.62E-08,  avg # of iterations =  3.3

     negative rho (up, down):  5.027E-04 0.000E+00

     total cpu time spent up to now is      380.5 secs

     total energy              =    -176.09213731 Ry
     estimated scf accuracy    <       0.00000815 Ry

     iteration #  7     ecut=    60.00 Ry     beta= 0.70
     Davidson diagonalization with overlap
     ethr =  2.55E-08,  avg # of iterations =  3.0

     negative rho (up, down):  5.026E-04 0.000E+00

     total cpu time spent up to now is      385.9 secs

     total energy              =    -176.09213833 Ry
     estimated scf accuracy    <       0.00000155 Ry

     iteration #  8     ecut=    60.00 Ry     beta= 0.70
     Davidson diagonalization with overlap
     ethr =  4.85E-09,  avg # of iterations =  2.8

     negative rho (up, down):  5.027E-04 0.000E+00

     total cpu time spent up to now is      391.3 secs

     total energy              =    -176.09213865 Ry
     estimated scf accuracy    <       0.00000021 Ry

     iteration #  9     ecut=    60.00 Ry     beta= 0.70
     Davidson diagonalization with overlap
     ethr =  6.58E-10,  avg # of iterations =  2.3

     negative rho (up, down):  5.027E-04 0.000E+00

     total cpu time spent up to now is      396.8 secs

     total energy              =    -176.09213866 Ry
     estimated scf accuracy    <       0.00000005 Ry

     iteration # 10     ecut=    60.00 Ry     beta= 0.70
     Davidson diagonalization with overlap
     ethr =  1.56E-10,  avg # of iterations =  3.0

     negative rho (up, down):  5.027E-04 0.000E+00

     total cpu time spent up to now is      403.0 secs

     total energy              =    -176.09213868 Ry
     estimated scf accuracy    <       0.00000001 Ry

     iteration # 11     ecut=    60.00 Ry     beta= 0.70
     Davidson diagonalization with overlap
     ethr =  3.82E-11,  avg # of iterations =  2.4

     negative rho (up, down):  5.027E-04 0.000E+00

     total cpu time spent up to now is      408.2 secs

     total energy              =    -176.09213868 Ry
     estimated scf accuracy    <          9.3E-10 Ry

     iteration # 12     ecut=    60.00 Ry     beta= 0.70
     Davidson diagonalization with overlap
     ethr =  2.92E-12,  avg # of iterations =  4.8

     negative rho (up, down):  5.027E-04 0.000E+00

     total cpu time spent up to now is      414.9 secs

     total energy              =    -176.09213868 Ry
     estimated scf accuracy    <          5.1E-10 Ry

     iteration # 13     ecut=    60.00 Ry     beta= 0.70
     Davidson diagonalization with overlap
     ethr =  1.60E-12,  avg # of iterations =  2.4

     negative rho (up, down):  5.027E-04 0.000E+00

     total cpu time spent up to now is      419.9 secs

     End of self-consistent calculation

          k = 0.0000 0.0000 0.0000 ( 18047 PWs)   bands (ev):

   -25.6710 -25.1518 -23.9502 -23.1002 -14.0719 -13.1702 -12.3614 -11.8941
   -10.3969  -8.8649  -7.5858  -7.2524  -7.0388  -6.7860  -6.6094  -5.9415

          k =-0.0153 0.2863 0.0000 ( 18132 PWs)   bands (ev):

   -25.5841 -25.0333 -24.1201 -23.2372 -13.9984 -13.2042 -12.1448 -11.7553
   -10.2178  -8.8956  -7.8081  -7.5693  -7.1440  -6.9073  -6.6463  -5.8754

          k = 0.0307-0.5725 0.0000 ( 18166 PWs)   bands (ev):

   -25.4853 -24.8495 -24.3576 -23.3812 -13.9449 -13.2380 -11.8997 -11.5682
    -9.9759  -9.0135  -8.1574  -7.8742  -7.2396  -6.8614  -6.6888  -5.8381

          k = 0.2575-0.1328 0.0000 ( 18109 PWs)   bands (ev):

   -25.6374 -25.0708 -24.0600 -23.1372 -14.1270 -13.2355 -12.3027 -11.8328
   -10.2832  -8.8430  -7.9285  -7.2708  -7.0670  -6.6743  -6.5445  -5.9454

          k = 0.2421 0.1535 0.0000 ( 18132 PWs)   bands (ev):

   -25.5823 -25.0253 -24.1309 -23.2387 -13.9989 -13.2116 -12.1643 -11.7675
   -10.1556  -8.8628  -7.8524  -7.5018  -7.2021  -6.8962  -6.6581  -5.8606

          k = 0.2882-0.7053 0.0000 ( 18147 PWs)   bands (ev):

   -25.4835 -24.8332 -24.3765 -23.3827 -13.9467 -13.2535 -11.9288 -11.5724
    -9.8722  -8.9637  -8.2270  -7.8490  -7.2509  -6.9161  -6.6567  -5.8151

          k = 0.2728-0.4190 0.0000 ( 18128 PWs)   bands (ev):

   -25.5472 -24.9147 -24.2674 -23.2766 -14.0621 -13.2773 -12.0778 -11.6782
   -10.0513  -8.8728  -8.2103  -7.6142  -7.1928  -6.7748  -6.5161  -5.8571

          k =-0.5150 0.2656 0.0000 ( 18184 PWs)   bands (ev):

   -25.6032 -24.9670 -24.1920 -23.1749 -14.1801 -13.3007 -12.2526 -11.7696
   -10.1504  -8.8184  -8.2046  -7.2667  -7.1078  -6.7302  -6.3704  -5.9251

          k =-0.5303 0.5518 0.0000 ( 18128 PWs)   bands (ev):

   -25.5454 -24.9027 -24.2821 -23.2783 -14.0625 -13.2834 -12.0974 -11.6915
    -9.9866  -8.8311  -8.2573  -7.5561  -7.2240  -6.8135  -6.5017  -5.8420

          k =-0.4843-0.3070 0.0000 ( 18166 PWs)   bands (ev):

   -25.4816 -24.8148 -24.3979 -23.3844 -13.9440 -13.2518 -11.9616 -11.5918
    -9.8156  -8.9140  -8.2334  -7.8176  -7.2601  -6.9852  -6.6467  -5.8048

     highest occupied level (ev):    -5.8048

!    total energy              =    -176.09213868 Ry
     estimated scf accuracy    <          4.2E-11 Ry

     convergence has been achieved in  13 iterations

     negative rho (up, down):  5.027E-04 0.000E+00

     Forces acting on atoms (cartesian axes, Ry/au):

     atom    1 type  1   force =     0.08198159    0.00684413    0.02319775
     atom    2 type  1   force =     0.02924440    0.01020097   -0.25265766
     atom    3 type  1   force =     0.01442617    0.18171198   -0.03986530
     atom    4 type  1   force =     0.01329368    0.04387811   -0.01650820
     atom    5 type  1   force =    -0.03481465   -0.03460721   -0.05200478
     atom    6 type  1   force =     0.05038886    0.01558743   -0.01805092
     atom    7 type  1   force =    -0.03479094   -0.05991132    0.03514345
     atom    8 type  1   force =     0.11173028   -0.04538445   -0.02853480
     atom    9 type  2   force =    -0.08928943   -0.07157481    0.23016966
     atom   10 type  2   force =    -0.03615615   -0.01353884    0.06140720
     atom   11 type  2   force =    -0.00592067   -0.18705700    0.03853970
     atom   12 type  2   force =    -0.10009312    0.15385102    0.01916390

     Total force =     0.529914     Total SCF correction =     0.000006

     Entering Dynamics:    iteration =     4

     <vel(dt)|acc(dt)> =   0.06543119

ATOMIC_POSITIONS (angstrom)
H             4.0837875974        3.7328885475       11.1245486968
H             5.1918718666        4.2053258313       10.1853189785
H             3.0562610437        1.3061202210        8.0605094556
H             3.2730130803        2.5411997568        9.0717048568
H             4.2824933578        3.6818765461        8.5588218951
H             6.2355785711        4.2642876176        8.3610193858
H             3.4640332046        1.8068774494       10.9006531882
H             1.9689816636        2.8662014765       11.2330293644
O             5.1414173566        4.1860772470       11.1247086140
O             3.5885941936        2.9966880930        8.2528542566
O             5.3548201848        4.5657082204        8.1848356707
O             2.9945343306        2.6648557514       10.9816817154



     Writing config-only to output data dir ./output/f-BH.save/
     NEW-OLD atomic charge density approx. for the potential

     negative rho (up, down):  4.973E-04 0.000E+00

     total cpu time spent up to now is      432.7 secs

     per-process dynamical memory:   210.2 Mb

     Self-consistent Calculation

     iteration #  1     ecut=    60.00 Ry     beta= 0.70
     Davidson diagonalization with overlap
     ethr =  1.00E-06,  avg # of iterations =  7.8

     negative rho (up, down):  5.000E-04 0.000E+00

     total cpu time spent up to now is      445.1 secs

     total energy              =    -176.14926304 Ry
     estimated scf accuracy    <       0.00653104 Ry

     iteration #  2     ecut=    60.00 Ry     beta= 0.70
     Davidson diagonalization with overlap
     ethr =  2.04E-05,  avg # of iterations =  3.0

     negative rho (up, down):  5.034E-04 0.000E+00

     total cpu time spent up to now is      451.1 secs

     total energy              =    -176.15061337 Ry
     estimated scf accuracy    <       0.00158248 Ry

     iteration #  3     ecut=    60.00 Ry     beta= 0.70
     Davidson diagonalization with overlap
     ethr =  4.95E-06,  avg # of iterations =  3.8

     negative rho (up, down):  5.036E-04 0.000E+00

     total cpu time spent up to now is      457.0 secs

     total energy              =    -176.15099285 Ry
     estimated scf accuracy    <       0.00019762 Ry

     iteration #  4     ecut=    60.00 Ry     beta= 0.70
     Davidson diagonalization with overlap
     ethr =  6.18E-07,  avg # of iterations =  3.6

     negative rho (up, down):  5.035E-04 0.000E+00

     total cpu time spent up to now is      462.5 secs

     total energy              =    -176.15102758 Ry
     estimated scf accuracy    <       0.00001939 Ry

     iteration #  5     ecut=    60.00 Ry     beta= 0.70
     Davidson diagonalization with overlap
     ethr =  6.06E-08,  avg # of iterations =  2.9

     negative rho (up, down):  5.036E-04 0.000E+00

     total cpu time spent up to now is      468.0 secs

     total energy              =    -176.15103274 Ry
     estimated scf accuracy    <       0.00000202 Ry

     iteration #  6     ecut=    60.00 Ry     beta= 0.70
     Davidson diagonalization with overlap
     ethr =  6.31E-09,  avg # of iterations =  2.0

     negative rho (up, down):  5.036E-04 0.000E+00

     total cpu time spent up to now is      473.4 secs

     total energy              =    -176.15103293 Ry
     estimated scf accuracy    <       0.00000022 Ry

     iteration #  7     ecut=    60.00 Ry     beta= 0.70
     Davidson diagonalization with overlap
     ethr =  6.95E-10,  avg # of iterations =  3.3

     negative rho (up, down):  5.036E-04 0.000E+00

     total cpu time spent up to now is      479.0 secs

     total energy              =    -176.15103299 Ry
     estimated scf accuracy    <       0.00000002 Ry

     iteration #  8     ecut=    60.00 Ry     beta= 0.70
     Davidson diagonalization with overlap
     ethr =  6.95E-11,  avg # of iterations =  2.0

     negative rho (up, down):  5.036E-04 0.000E+00

     total cpu time spent up to now is      484.5 secs

     total energy              =    -176.15103299 Ry
     estimated scf accuracy    <          4.2E-09 Ry

     iteration #  9     ecut=    60.00 Ry     beta= 0.70
     Davidson diagonalization with overlap
     ethr =  1.30E-11,  avg # of iterations =  2.9

     negative rho (up, down):  5.036E-04 0.000E+00

     total cpu time spent up to now is      490.6 secs

     total energy              =    -176.15103300 Ry
     estimated scf accuracy    <          7.1E-10 Ry

     iteration # 10     ecut=    60.00 Ry     beta= 0.70
     Davidson diagonalization with overlap
     ethr =  2.23E-12,  avg # of iterations =  2.0

     negative rho (up, down):  5.036E-04 0.000E+00

     total cpu time spent up to now is      495.7 secs

     total energy              =    -176.15103300 Ry
     estimated scf accuracy    <          1.6E-10 Ry

     iteration # 11     ecut=    60.00 Ry     beta= 0.70
     Davidson diagonalization with overlap
     ethr =  5.07E-13,  avg # of iterations =  3.1

     negative rho (up, down):  5.036E-04 0.000E+00

     total cpu time spent up to now is      501.9 secs

     End of self-consistent calculation

          k = 0.0000 0.0000 0.0000 ( 18047 PWs)   bands (ev):

   -25.5110 -24.8736 -23.7157 -23.3246 -13.8266 -13.2865 -12.5844 -11.6943
   -10.2306  -8.8992  -7.4910  -7.2572  -7.0955  -6.6904  -6.6338  -6.0974

          k =-0.0153 0.2863 0.0000 ( 18132 PWs)   bands (ev):

   -25.4071 -24.7506 -23.8879 -23.4778 -13.7915 -13.3513 -12.3090 -11.5024
   -10.0766  -8.9542  -7.7648  -7.6192  -7.1486  -6.7958  -6.6465  -6.0171

          k = 0.0307-0.5725 0.0000 ( 18166 PWs)   bands (ev):

   -25.2817 -24.5620 -24.1243 -23.6517 -13.7752 -13.4067 -11.9741 -11.2936
    -9.8703  -9.1020  -8.1289  -7.9236  -7.2265  -6.7940  -6.6413  -5.9715

          k = 0.2575-0.1328 0.0000 ( 18109 PWs)   bands (ev):

   -25.4709 -24.7761 -23.8410 -23.3750 -13.8884 -13.3185 -12.5130 -11.6413
   -10.1490  -8.8824  -7.7668  -7.2761  -7.1353  -6.7514  -6.4426  -6.1024

          k = 0.2421 0.1535 0.0000 ( 18132 PWs)   bands (ev):

   -25.4027 -24.7357 -23.9105 -23.4809 -13.7743 -13.3276 -12.3521 -11.5347
   -10.0268  -8.9119  -7.8164  -7.5761  -7.1927  -6.8377  -6.5734  -6.0004

          k = 0.2882-0.7053 0.0000 ( 18147 PWs)   bands (ev):

   -25.2765 -24.5275 -24.1669 -23.6547 -13.7630 -13.3944 -12.0204 -11.3178
    -9.7812  -9.0378  -8.1920  -7.9351  -7.2357  -6.8716  -6.5489  -5.9455

          k = 0.2728-0.4190 0.0000 ( 18128 PWs)   bands (ev):

   -25.3606 -24.6037 -24.0607 -23.5353 -13.8618 -13.3885 -12.2288 -11.4312
    -9.9586  -8.9381  -8.0462  -7.7093  -7.1938  -6.8223  -6.4185  -5.9985

          k =-0.5150 0.2656 0.0000 ( 18184 PWs)   bands (ev):

   -25.4291 -24.6425 -24.0024 -23.4263 -13.9471 -13.3534 -12.4519 -11.5807
   -10.0550  -8.8641  -8.0061  -7.2602  -7.1921  -6.8063  -6.2922  -6.0803

          k =-0.5303 0.5518 0.0000 ( 18128 PWs)   bands (ev):

   -25.3560 -24.5774 -24.0944 -23.5389 -13.8456 -13.3668 -12.2689 -11.4651
    -9.9081  -8.8897  -8.0995  -7.6602  -7.2168  -6.8655  -6.3718  -5.9823

          k =-0.4843-0.3070 0.0000 ( 18166 PWs)   bands (ev):

   -25.2711 -24.4816 -24.2209 -23.6583 -13.7442 -13.3670 -12.0723 -11.3603
    -9.7298  -8.9765  -8.2150  -7.9203  -7.2397  -6.9340  -6.5088  -5.9319

     highest occupied level (ev):    -5.9319

!    total energy              =    -176.15103300 Ry
     estimated scf accuracy    <          2.3E-11 Ry

     convergence has been achieved in  11 iterations

     negative rho (up, down):  5.036E-04 0.000E+00

     Forces acting on atoms (cartesian axes, Ry/au):

     atom    1 type  1   force =     0.08205909    0.01389833    0.02503119
     atom    2 type  1   force =     0.01979565    0.01020969   -0.08718279
     atom    3 type  1   force =     0.03338637    0.04953905   -0.02576980
     atom    4 type  1   force =     0.00705960    0.03641005    0.00186683
     atom    5 type  1   force =    -0.01713734   -0.02086892   -0.03995288
     atom    6 type  1   force =     0.07377661    0.00497341   -0.01250335
     atom    7 type  1   force =    -0.05776431   -0.01947179    0.03999750
     atom    8 type  1   force =     0.08095629   -0.03953503   -0.01766521
     atom    9 type  2   force =    -0.08438413   -0.06274977    0.06126173
     atom   10 type  2   force =    -0.04857498   -0.02372499    0.03261092
     atom   11 type  2   force =    -0.04741441   -0.04066656    0.01857994
     atom   12 type  2   force =    -0.04175842    0.09198653    0.00372593

     Total force =     0.276079     Total SCF correction =     0.000006

     Entering Dynamics:    iteration =     5

     <vel(dt)|acc(dt)> =   0.82096790

ATOMIC_POSITIONS (angstrom)
H             4.1029245822        3.7170973820       11.1386881167
H             5.2048318143        4.2182317107       10.1596080686
H             3.0875150565        1.3231324997        8.0371220475
H             3.2677662383        2.5615561502        9.1016234718
H             4.2555735709        3.6493090988        8.5099538991
H             6.2803215427        4.2684462014        8.3427956744
H             3.3925152750        1.8225450050       10.9438360959
H             2.0562686986        2.8285529210       11.2147094662
O             5.1390568609        4.1532590996       11.1363389573
O             3.5507651006        2.9859355987        8.2675034582
O             5.3494506600        4.5716326174        8.2081128871
O             2.9483970509        2.7184084736       10.9793939350



     Writing config-only to output data dir ./output/f-BH.save/
     NEW-OLD atomic charge density approx. for the potential

     negative rho (up, down):  4.860E-04 0.000E+00

     total cpu time spent up to now is      514.6 secs

     per-process dynamical memory:   210.2 Mb

     Self-consistent Calculation

     iteration #  1     ecut=    60.00 Ry     beta= 0.70
     Davidson diagonalization with overlap
     ethr =  1.00E-06,  avg # of iterations = 10.0

     negative rho (up, down):  5.032E-04 0.000E+00

     total cpu time spent up to now is      529.1 secs

     total energy              =    -176.19070563 Ry
     estimated scf accuracy    <       0.01524276 Ry

     iteration #  2     ecut=    60.00 Ry     beta= 0.70
     Davidson diagonalization with overlap
     ethr =  4.76E-05,  avg # of iterations =  3.0

     negative rho (up, down):  5.047E-04 0.000E+00

     total cpu time spent up to now is      534.9 secs

     total energy              =    -176.19341962 Ry
     estimated scf accuracy    <       0.00410268 Ry

     iteration #  3     ecut=    60.00 Ry     beta= 0.70
     Davidson diagonalization with overlap
     ethr =  1.28E-05,  avg # of iterations =  3.0

     negative rho (up, down):  5.071E-04 0.000E+00

     total cpu time spent up to now is      540.5 secs

     total energy              =    -176.19448647 Ry
     estimated scf accuracy    <       0.00057037 Ry

     iteration #  4     ecut=    60.00 Ry     beta= 0.70
     Davidson diagonalization with overlap
     ethr =  1.78E-06,  avg # of iterations =  2.9

     negative rho (up, down):  5.072E-04 0.000E+00

     total cpu time spent up to now is      545.9 secs

     total energy              =    -176.19460213 Ry
     estimated scf accuracy    <       0.00003389 Ry

     iteration #  5     ecut=    60.00 Ry     beta= 0.70
     Davidson diagonalization with overlap
     ethr =  1.06E-07,  avg # of iterations =  2.8

     negative rho (up, down):  5.071E-04 0.000E+00

     total cpu time spent up to now is      551.9 secs

     total energy              =    -176.19461176 Ry
     estimated scf accuracy    <       0.00000475 Ry

     iteration #  6     ecut=    60.00 Ry     beta= 0.70
     Davidson diagonalization with overlap
     ethr =  1.48E-08,  avg # of iterations =  2.6

     negative rho (up, down):  5.071E-04 0.000E+00

     total cpu time spent up to now is      557.3 secs

     total energy              =    -176.19461247 Ry
     estimated scf accuracy    <       0.00000026 Ry

     iteration #  7     ecut=    60.00 Ry     beta= 0.70
     Davidson diagonalization with overlap
     ethr =  8.27E-10,  avg # of iterations =  3.6

     negative rho (up, down):  5.070E-04 0.000E+00

     total cpu time spent up to now is      563.7 secs

     total energy              =    -176.19461259 Ry
     estimated scf accuracy    <       0.00000007 Ry

     iteration #  8     ecut=    60.00 Ry     beta= 0.70
     Davidson diagonalization with overlap
     ethr =  2.05E-10,  avg # of iterations =  2.8

     negative rho (up, down):  5.070E-04 0.000E+00

     total cpu time spent up to now is      569.2 secs

     total energy              =    -176.19461259 Ry
     estimated scf accuracy    <       0.00000002 Ry

     iteration #  9     ecut=    60.00 Ry     beta= 0.70
     Davidson diagonalization with overlap
     ethr =  5.16E-11,  avg # of iterations =  3.0

     negative rho (up, down):  5.070E-04 0.000E+00

     total cpu time spent up to now is      575.1 secs

     total energy              =    -176.19461260 Ry
     estimated scf accuracy    <          3.5E-09 Ry

     iteration # 10     ecut=    60.00 Ry     beta= 0.70
     Davidson diagonalization with overlap
     ethr =  1.08E-11,  avg # of iterations =  2.4

     negative rho (up, down):  5.070E-04 0.000E+00

     total cpu time spent up to now is      580.6 secs

     total energy              =    -176.19461260 Ry
     estimated scf accuracy    <          4.0E-10 Ry

     iteration # 11     ecut=    60.00 Ry     beta= 0.70
     Davidson diagonalization with overlap
     ethr =  1.24E-12,  avg # of iterations =  3.5

     negative rho (up, down):  5.070E-04 0.000E+00

     total cpu time spent up to now is      586.8 secs

     total energy              =    -176.19461260 Ry
     estimated scf accuracy    <          1.0E-10 Ry

     iteration # 12     ecut=    60.00 Ry     beta= 0.70
     Davidson diagonalization with overlap
     ethr =  3.25E-13,  avg # of iterations =  2.2

     negative rho (up, down):  5.070E-04 0.000E+00

     total cpu time spent up to now is      592.2 secs

     End of self-consistent calculation

          k = 0.0000 0.0000 0.0000 ( 18047 PWs)   bands (ev):

   -25.3797 -25.0972 -23.5964 -23.4463 -13.8131 -13.4911 -12.4852 -11.6004
   -10.0934  -8.9661  -7.5778  -7.2565  -7.1559  -6.7920  -6.4251  -6.2560

          k =-0.0153 0.2863 0.0000 ( 18132 PWs)   bands (ev):

   -25.2625 -25.0160 -23.7636 -23.5695 -13.8585 -13.4243 -12.2966 -11.3674
    -9.9691  -9.0342  -7.8431  -7.6605  -7.1389  -6.8553  -6.4499  -6.1891

          k = 0.0307-0.5725 0.0000 ( 18166 PWs)   bands (ev):

   -25.1154 -24.9175 -23.9705 -23.6982 -13.9168 -13.3712 -12.0284 -11.1189
    -9.8182  -9.1625  -8.2212  -7.9296  -7.1530  -6.9105  -6.4399  -6.1372

          k = 0.2575-0.1328 0.0000 ( 18109 PWs)   bands (ev):

   -25.3094 -25.0547 -23.6611 -23.5368 -13.7873 -13.5642 -12.3966 -11.6046
   -10.0310  -8.9635  -7.6769  -7.3602  -7.1593  -6.8450  -6.3651  -6.2302

          k = 0.2421 0.1535 0.0000 ( 18132 PWs)   bands (ev):

   -25.2529 -25.0077 -23.7818 -23.5786 -13.8216 -13.3731 -12.3657 -11.4282
    -9.9226  -8.9790  -7.8897  -7.6693  -7.1718  -6.8987  -6.3315  -6.1605

          k = 0.2882-0.7053 0.0000 ( 18147 PWs)   bands (ev):

   -25.1009 -24.9097 -23.9879 -23.7121 -13.8852 -13.3346 -12.0969 -11.1725
    -9.7399  -9.0749  -8.2731  -7.9951  -7.1533  -6.9735  -6.3200  -6.1053

          k = 0.2728-0.4190 0.0000 ( 18128 PWs)   bands (ev):

   -25.1652 -24.9832 -23.8165 -23.6883 -13.8292 -13.5298 -12.1809 -11.3515
    -9.8911  -9.0317  -7.9303  -7.8105  -7.1503  -6.9305  -6.3193  -6.1470

          k =-0.5150 0.2656 0.0000 ( 18184 PWs)   bands (ev):

   -25.2284 -25.0124 -23.7276 -23.6356 -13.7811 -13.6140 -12.3200 -11.6015
    -9.9606  -8.9651  -7.7977  -7.4129  -7.1963  -6.8845  -6.2963  -6.1719

          k =-0.5303 0.5518 0.0000 ( 18128 PWs)   bands (ev):

   -25.1537 -24.9743 -23.8397 -23.6948 -13.7944 -13.4842 -12.2418 -11.4164
    -9.8416  -8.9765  -7.9902  -7.7940  -7.1706  -6.9649  -6.2318  -6.1202

          k =-0.4843-0.3070 0.0000 ( 18166 PWs)   bands (ev):

   -25.0855 -24.9020 -24.0061 -23.7265 -13.8429 -13.2850 -12.1773 -11.2444
    -9.6763  -8.9957  -8.3185  -8.0190  -7.1279  -7.0428  -6.2424  -6.0875

     highest occupied level (ev):    -6.0875

!    total energy              =    -176.19461260 Ry
     estimated scf accuracy    <          1.5E-12 Ry

     convergence has been achieved in  12 iterations

     negative rho (up, down):  5.070E-04 0.000E+00

     Forces acting on atoms (cartesian axes, Ry/au):

     atom    1 type  1   force =     0.08438220    0.02750446    0.02108426
     atom    2 type  1   force =     0.01116249    0.00569702   -0.00702758
     atom    3 type  1   force =     0.03231634    0.02794403   -0.02278415
     atom    4 type  1   force =     0.00057153    0.02728797    0.01529365
     atom    5 type  1   force =     0.00520485    0.00093151   -0.02714631
     atom    6 type  1   force =     0.00036366    0.02091195   -0.02434090
     atom    7 type  1   force =    -0.06324855    0.01007499    0.03775715
     atom    8 type  1   force =    -0.11631066   -0.00640487    0.03816581
     atom    9 type  2   force =    -0.08578147   -0.04250014   -0.01639998
     atom   10 type  2   force =    -0.05979012   -0.02931647    0.00566314
     atom   11 type  2   force =     0.02250742   -0.04236774    0.02972362
     atom   12 type  2   force =     0.16862230    0.00023729   -0.04998871

     Total force =     0.286735     Total SCF correction =     0.000002

     Entering Dynamics:    iteration =     6

     <vel(dt)|acc(dt)> =   0.68861816

ATOMIC_POSITIONS (angstrom)
H             4.1447347019        3.7096172781       11.1490594755
H             5.2223489551        4.2310204635       10.1260009084
H             3.1328508545        1.3570758536        8.0044221317
H             3.2599488311        2.5884114436        9.1446655905
H             4.2401302423        3.6271244470        8.4577883324
H             6.3244863186        4.2831689174        8.3151744718
H             3.2996964986        1.8344462869       11.0002647186
H             2.0573199213        2.7926833189       11.2225493409
O             5.1077871963        4.1163139421       11.1583179863
O             3.4875900649        2.9647976956        8.2696063560
O             5.3477015924        4.5462418896        8.2425100497
O             3.0107912740        2.7672052217       10.9493267161



     Writing config-only to output data dir ./output/f-BH.save/
     NEW-OLD atomic charge density approx. for the potential

     negative rho (up, down):  4.664E-04 0.000E+00

     total cpu time spent up to now is      604.9 secs

     per-process dynamical memory:   210.2 Mb

     Self-consistent Calculation

     iteration #  1     ecut=    60.00 Ry     beta= 0.70
     Davidson diagonalization with overlap
     ethr =  1.00E-06,  avg # of iterations =  9.9

     negative rho (up, down):  4.856E-04 0.000E+00

     total cpu time spent up to now is      620.0 secs

     total energy              =    -176.23105641 Ry
     estimated scf accuracy    <       0.01464599 Ry

     iteration #  2     ecut=    60.00 Ry     beta= 0.70
     Davidson diagonalization with overlap
     ethr =  4.58E-05,  avg # of iterations =  2.3

     negative rho (up, down):  4.958E-04 0.000E+00

     total cpu time spent up to now is      625.6 secs

     total energy              =    -176.23393563 Ry
     estimated scf accuracy    <       0.00226181 Ry

     iteration #  3     ecut=    60.00 Ry     beta= 0.70
     Davidson diagonalization with overlap
     ethr =  7.07E-06,  avg # of iterations =  2.4

     negative rho (up, down):  4.974E-04 0.000E+00

     total cpu time spent up to now is      631.4 secs

     total energy              =    -176.23444876 Ry
     estimated scf accuracy    <       0.00022897 Ry

     iteration #  4     ecut=    60.00 Ry     beta= 0.70
     Davidson diagonalization with overlap
     ethr =  7.16E-07,  avg # of iterations =  2.1

     negative rho (up, down):  4.977E-04 0.000E+00

     total cpu time spent up to now is      636.7 secs

     total energy              =    -176.23448529 Ry
     estimated scf accuracy    <       0.00001888 Ry

     iteration #  5     ecut=    60.00 Ry     beta= 0.70
     Davidson diagonalization with overlap
     ethr =  5.90E-08,  avg # of iterations =  2.6

     negative rho (up, down):  4.981E-04 0.000E+00

     total cpu time spent up to now is      642.4 secs

     total energy              =    -176.23448984 Ry
     estimated scf accuracy    <       0.00000271 Ry

     iteration #  6     ecut=    60.00 Ry     beta= 0.70
     Davidson diagonalization with overlap
     ethr =  8.45E-09,  avg # of iterations =  2.0

     negative rho (up, down):  4.982E-04 0.000E+00

     total cpu time spent up to now is      647.8 secs

     total energy              =    -176.23449017 Ry
     estimated scf accuracy    <       0.00000019 Ry

     iteration #  7     ecut=    60.00 Ry     beta= 0.70
     Davidson diagonalization with overlap
     ethr =  6.08E-10,  avg # of iterations =  3.0

     negative rho (up, down):  4.981E-04 0.000E+00

     total cpu time spent up to now is      654.0 secs

     total energy              =    -176.23449024 Ry
     estimated scf accuracy    <       0.00000004 Ry

     iteration #  8     ecut=    60.00 Ry     beta= 0.70
     Davidson diagonalization with overlap
     ethr =  1.32E-10,  avg # of iterations =  2.5

     negative rho (up, down):  4.981E-04 0.000E+00

     total cpu time spent up to now is      659.7 secs

     total energy              =    -176.23449024 Ry
     estimated scf accuracy    <          9.0E-09 Ry

     iteration #  9     ecut=    60.00 Ry     beta= 0.70
     Davidson diagonalization with overlap
     ethr =  2.81E-11,  avg # of iterations =  3.2

     negative rho (up, down):  4.981E-04 0.000E+00

     total cpu time spent up to now is      665.4 secs

     total energy              =    -176.23449024 Ry
     estimated scf accuracy    <          1.7E-09 Ry

     iteration # 10     ecut=    60.00 Ry     beta= 0.70
     Davidson diagonalization with overlap
     ethr =  5.38E-12,  avg # of iterations =  2.6

     negative rho (up, down):  4.981E-04 0.000E+00

     total cpu time spent up to now is      671.1 secs

     total energy              =    -176.23449024 Ry
     estimated scf accuracy    <          1.1E-10 Ry

     iteration # 11     ecut=    60.00 Ry     beta= 0.70
     Davidson diagonalization with overlap
     ethr =  3.37E-13,  avg # of iterations =  3.3

     negative rho (up, down):  4.981E-04 0.000E+00

     total cpu time spent up to now is      677.2 secs

     End of self-consistent calculation

          k = 0.0000 0.0000 0.0000 ( 18047 PWs)   bands (ev):

   -25.2222 -24.7855 -23.4084 -23.1798 -13.1028 -12.7319 -12.0387 -11.8857
   -10.2410  -9.0306  -7.6161  -7.1873  -7.0202  -6.6784  -6.3897  -6.2609

          k =-0.0153 0.2863 0.0000 ( 18132 PWs)   bands (ev):

   -25.1334 -24.6541 -23.6041 -23.2993 -13.0148 -12.8487 -11.8611 -11.5527
   -10.1526  -9.1261  -7.8597  -7.5904  -7.0030  -6.7618  -6.3647  -6.2178

          k = 0.0307-0.5725 0.0000 ( 18166 PWs)   bands (ev):

   -25.0339 -24.4388 -23.8893 -23.4216 -13.0607 -12.8260 -11.6037 -11.2100
   -10.0609  -9.2650  -8.2845  -7.8177  -7.0013  -6.8223  -6.3599  -6.1574

          k = 0.2575-0.1328 0.0000 ( 18109 PWs)   bands (ev):

   -25.1548 -24.7338 -23.4817 -23.2708 -13.1506 -12.7602 -11.9441 -11.8429
   -10.1587  -9.0317  -7.7500  -7.3316  -7.0335  -6.7101  -6.3482  -6.2010

          k = 0.2421 0.1535 0.0000 ( 18132 PWs)   bands (ev):

   -25.1137 -24.6457 -23.6200 -23.3282 -12.9577 -12.7030 -11.9929 -11.6483
   -10.0782  -9.0580  -7.9556  -7.6605  -7.0398  -6.7793  -6.2499  -6.1491

          k = 0.2882-0.7053 0.0000 ( 18147 PWs)   bands (ev):

   -25.0095 -24.4261 -23.9072 -23.4569 -12.9902 -12.7579 -11.7165 -11.2737
    -9.9534  -9.1579  -8.3692  -7.9615  -7.0082  -6.8686  -6.2186  -6.1039

          k = 0.2728-0.4190 0.0000 ( 18128 PWs)   bands (ev):

   -25.0547 -24.5868 -23.6900 -23.4034 -13.0469 -12.9344 -11.7348 -11.4680
   -10.0539  -9.1324  -7.9860  -7.7928  -7.0199  -6.8203  -6.2259  -6.1603

          k =-0.5150 0.2656 0.0000 ( 18184 PWs)   bands (ev):

   -25.0785 -24.6796 -23.5547 -23.3728 -13.2007 -12.7879 -11.8726 -11.7761
   -10.0680  -9.0377  -7.9033  -7.4190  -7.0724  -6.7333  -6.3003  -6.1175

          k =-0.5303 0.5518 0.0000 ( 18128 PWs)   bands (ev):

   -25.0316 -24.5782 -23.7059 -23.4357 -13.0129 -12.7928 -11.8421 -11.5682
    -9.9698  -9.0617  -8.0983  -7.8290  -7.0432  -6.8310  -6.1600  -6.0850

          k =-0.4843-0.3070 0.0000 ( 18166 PWs)   bands (ev):

   -24.9835 -24.4129 -23.9263 -23.4935 -12.9045 -12.6415 -11.8696 -11.3717
    -9.8381  -9.0523  -8.4676  -8.0695  -6.9843  -6.9206  -6.1256  -6.0624

     highest occupied level (ev):    -6.0624

!    total energy              =    -176.23449024 Ry
     estimated scf accuracy    <          2.0E-11 Ry

     convergence has been achieved in  11 iterations

     negative rho (up, down):  4.981E-04 0.000E+00

     Forces acting on atoms (cartesian axes, Ry/au):

     atom    1 type  1   force =     0.04393808    0.01325366    0.01881209
     atom    2 type  1   force =    -0.00294796   -0.00483791    0.07563257
     atom    3 type  1   force =     0.02589903   -0.05036968    0.00168300
     atom    4 type  1   force =    -0.00299806    0.02494692    0.01587968
     atom    5 type  1   force =    -0.00822551   -0.01560242   -0.03416541
     atom    6 type  1   force =    -0.03666114    0.01099329   -0.02127402
     atom    7 type  1   force =    -0.01019409   -0.02097386    0.02490927
     atom    8 type  1   force =     0.00124945    0.01416460    0.00177018
     atom    9 type  2   force =    -0.00830384    0.00373063   -0.09607940
     atom   10 type  2   force =    -0.03625589   -0.00847360    0.00581999
     atom   11 type  2   force =     0.05976454    0.04369566    0.01060019
     atom   12 type  2   force =    -0.02526462   -0.01052729   -0.00358815

     Total force =     0.184829     Total SCF correction =     0.000007

     Entering Dynamics:    iteration =     7

     <vel(dt)|acc(dt)> =   0.74745830

ATOMIC_POSITIONS (angstrom)
H             4.1885418676        3.6986925127       11.1688184795
H             5.2340418815        4.2387604474       10.1429599982
H             3.1850411655        1.3708831275        7.9766907471
H             3.2486276730        2.6274290055        9.1968784807
H             4.2078728868        3.5837224581        8.3771477074
H             6.3225334814        4.3050549917        8.2737948299
H             3.2183581738        1.8261847927       11.0662571111
H             2.0889030598        2.7716079864       11.2216675367
O             5.1094900513        4.0975012747       11.1202366423
O             3.4190287606        2.9531631533        8.2814881371
O             5.4118048104        4.5358932722        8.2841681679
O             3.0011426391        2.8092137361       10.9295782398



     Writing config-only to output data dir ./output/f-BH.save/
     NEW-OLD atomic charge density approx. for the potential

     negative rho (up, down):  4.542E-04 0.000E+00

     total cpu time spent up to now is      689.9 secs

     per-process dynamical memory:   210.2 Mb

     Self-consistent Calculation

     iteration #  1     ecut=    60.00 Ry     beta= 0.70
     Davidson diagonalization with overlap
     ethr =  1.00E-06,  avg # of iterations = 10.5

     negative rho (up, down):  4.880E-04 0.000E+00

     total cpu time spent up to now is      705.0 secs

     total energy              =    -176.24396464 Ry
     estimated scf accuracy    <       0.01830881 Ry

     iteration #  2     ecut=    60.00 Ry     beta= 0.70
     Davidson diagonalization with overlap
     ethr =  5.72E-05,  avg # of iterations =  3.0

     negative rho (up, down):  4.910E-04 0.000E+00

     total cpu time spent up to now is      711.1 secs

     total energy              =    -176.24809315 Ry
     estimated scf accuracy    <       0.00518000 Ry

     iteration #  3     ecut=    60.00 Ry     beta= 0.70
     Davidson diagonalization with overlap
     ethr =  1.62E-05,  avg # of iterations =  2.8

     negative rho (up, down):  4.921E-04 0.000E+00

     total cpu time spent up to now is      716.8 secs

     total energy              =    -176.24930726 Ry
     estimated scf accuracy    <       0.00026119 Ry

     iteration #  4     ecut=    60.00 Ry     beta= 0.70
     Davidson diagonalization with overlap
     ethr =  8.16E-07,  avg # of iterations =  2.4

     negative rho (up, down):  4.931E-04 0.000E+00

     total cpu time spent up to now is      722.1 secs

     total energy              =    -176.24934949 Ry
     estimated scf accuracy    <       0.00002541 Ry

     iteration #  5     ecut=    60.00 Ry     beta= 0.70
     Davidson diagonalization with overlap
     ethr =  7.94E-08,  avg # of iterations =  2.8

     negative rho (up, down):  4.932E-04 0.000E+00

     total cpu time spent up to now is      727.8 secs

     total energy              =    -176.24935612 Ry
     estimated scf accuracy    <       0.00000453 Ry

     iteration #  6     ecut=    60.00 Ry     beta= 0.70
     Davidson diagonalization with overlap
     ethr =  1.42E-08,  avg # of iterations =  2.7

     negative rho (up, down):  4.932E-04 0.000E+00

     total cpu time spent up to now is      733.3 secs

     total energy              =    -176.24935676 Ry
     estimated scf accuracy    <       0.00000068 Ry

     iteration #  7     ecut=    60.00 Ry     beta= 0.70
     Davidson diagonalization with overlap
     ethr =  2.14E-09,  avg # of iterations =  2.3

     negative rho (up, down):  4.933E-04 0.000E+00

     total cpu time spent up to now is      738.7 secs

     total energy              =    -176.24935689 Ry
     estimated scf accuracy    <       0.00000005 Ry

     iteration #  8     ecut=    60.00 Ry     beta= 0.70
     Davidson diagonalization with overlap
     ethr =  1.42E-10,  avg # of iterations =  3.1

     negative rho (up, down):  4.933E-04 0.000E+00

     total cpu time spent up to now is      744.9 secs

     total energy              =    -176.24935690 Ry
     estimated scf accuracy    <       0.00000003 Ry

     iteration #  9     ecut=    60.00 Ry     beta= 0.70
     Davidson diagonalization with overlap
     ethr =  8.84E-11,  avg # of iterations =  2.4

     negative rho (up, down):  4.933E-04 0.000E+00

     total cpu time spent up to now is      750.3 secs

     total energy              =    -176.24935690 Ry
     estimated scf accuracy    <          1.4E-09 Ry

     iteration # 10     ecut=    60.00 Ry     beta= 0.70
     Davidson diagonalization with overlap
     ethr =  4.42E-12,  avg # of iterations =  4.3

     negative rho (up, down):  4.933E-04 0.000E+00

     total cpu time spent up to now is      756.6 secs

     total energy              =    -176.24935690 Ry
     estimated scf accuracy    <          5.1E-10 Ry

     iteration # 11     ecut=    60.00 Ry     beta= 0.70
     Davidson diagonalization with overlap
     ethr =  1.59E-12,  avg # of iterations =  2.5

     negative rho (up, down):  4.933E-04 0.000E+00

     total cpu time spent up to now is      762.2 secs

     End of self-consistent calculation

          k = 0.0000 0.0000 0.0000 ( 18047 PWs)   bands (ev):

   -25.2836 -24.6012 -23.5818 -23.2490 -12.6908 -12.3691 -11.9526 -11.8468
   -10.4045  -9.0849  -7.6995  -7.1523  -6.9332  -6.4650  -6.3818  -6.1460

          k =-0.0153 0.2863 0.0000 ( 18132 PWs)   bands (ev):

   -25.2054 -24.4671 -23.6861 -23.4330 -12.8012 -12.5683 -11.6283 -11.4700
   -10.3071  -9.1220  -7.8859  -7.5095  -6.9152  -6.5837  -6.3823  -6.0830

          k = 0.0307-0.5725 0.0000 ( 18166 PWs)   bands (ev):

   -25.1158 -24.2580 -23.8098 -23.6825 -12.8909 -12.6671 -11.3552 -11.1168
   -10.1866  -9.1129  -8.2776  -7.7711  -6.9043  -6.6524  -6.3777  -6.0194

          k = 0.2575-0.1328 0.0000 ( 18109 PWs)   bands (ev):

   -25.2099 -24.5337 -23.6708 -23.3495 -12.6684 -12.3855 -12.0172 -11.7205
   -10.3258  -9.0747  -7.8077  -7.2839  -6.9556  -6.4902  -6.3302  -6.1426

          k = 0.2421 0.1535 0.0000 ( 18132 PWs)   bands (ev):

   -25.1789 -24.4659 -23.7250 -23.4377 -12.6564 -12.3782 -11.8841 -11.5981
   -10.2284  -9.0485  -8.0198  -7.5941  -6.9446  -6.5604  -6.2499  -6.0092

          k = 0.2882-0.7053 0.0000 ( 18147 PWs)   bands (ev):

   -25.0836 -24.2623 -23.8282 -23.7074 -12.7701 -12.5890 -11.5203 -11.2096
   -10.0831  -8.9869  -8.3933  -7.9301  -6.9248  -6.6557  -6.2244  -5.9568

          k = 0.2728-0.4190 0.0000 ( 18128 PWs)   bands (ev):

   -25.1202 -24.3776 -23.7644 -23.5767 -12.7728 -12.6439 -11.6117 -11.3484
   -10.2112  -9.1030  -8.0054  -7.7085  -6.9496  -6.6070  -6.2785  -6.0376

          k =-0.5150 0.2656 0.0000 ( 18184 PWs)   bands (ev):

   -25.1250 -24.4599 -23.7584 -23.4685 -12.6861 -12.3555 -12.0606 -11.6226
   -10.2389  -9.0681  -7.9316  -7.3852  -7.0027  -6.5044  -6.2657  -6.1080

          k =-0.5303 0.5518 0.0000 ( 18128 PWs)   bands (ev):

   -25.0884 -24.3787 -23.8068 -23.5807 -12.6712 -12.4270 -11.8574 -11.4779
   -10.1237  -9.0242  -8.1435  -7.7618  -6.9719  -6.5878  -6.1727  -5.9750

          k =-0.4843-0.3070 0.0000 ( 18166 PWs)   bands (ev):

   -25.0487 -24.2678 -23.8547 -23.7261 -12.6529 -12.3868 -11.7911 -11.3243
    -9.9766  -8.8554  -8.5239  -8.0519  -6.9246  -6.6474  -6.1220  -5.9125

     highest occupied level (ev):    -5.9125

!    total energy              =    -176.24935690 Ry
     estimated scf accuracy    <          1.6E-11 Ry

     convergence has been achieved in  11 iterations

     negative rho (up, down):  4.933E-04 0.000E+00

     Forces acting on atoms (cartesian axes, Ry/au):

     atom    1 type  1   force =     0.00954532    0.00502430    0.00953124
     atom    2 type  1   force =    -0.00058417   -0.00279842    0.00903422
     atom    3 type  1   force =     0.02327314   -0.07448433    0.02245792
     atom    4 type  1   force =    -0.00334338    0.02567291    0.00534152
     atom    5 type  1   force =    -0.00264579   -0.01358721   -0.02611842
     atom    6 type  1   force =     0.08927519   -0.02985318   -0.01423420
     atom    7 type  1   force =     0.00391440    0.02595044    0.00523924
     atom    8 type  1   force =    -0.06266371    0.03770805    0.01477101
     atom    9 type  2   force =     0.02441567    0.02256669   -0.01856128
     atom   10 type  2   force =    -0.02110946   -0.00533965    0.00204618
     atom   11 type  2   force =    -0.08476144    0.10383137   -0.01128879
     atom   12 type  2   force =     0.02468424   -0.09469099    0.00178135

     Total force =     0.231107     Total SCF correction =     0.000007

     Entering Dynamics:    iteration =     8

     <vel(dt)|acc(dt)> =   0.33028054

ATOMIC_POSITIONS (angstrom)
H             4.2086369881        3.7011522225       11.1790614867
H             5.2360236681        4.2358195803       10.1365650529
H             3.2080051367        1.3462081785        7.9835146684
H             3.2451177488        2.6548489091        9.2086481704
H             4.1970105851        3.5641197556        8.3404071252
H             6.3533963845        4.2974368639        8.2531203248
H             3.2152328007        1.8204562292       11.0831930089
H             2.0619613016        2.7942257308       11.2286416506
O             5.1238059112        4.1111807815       11.1160422708
O             3.3912882604        2.9499132341        8.2895251191
O             5.4013089142        4.5700164714        8.2903237599
O             2.9935987514        2.7727288012       10.9306434400



     Writing config-only to output data dir ./output/f-BH.save/
     NEW-OLD atomic charge density approx. for the potential

     negative rho (up, down):  4.810E-04 0.000E+00

     total cpu time spent up to now is      774.8 secs

     per-process dynamical memory:   210.2 Mb

     Self-consistent Calculation

     iteration #  1     ecut=    60.00 Ry     beta= 0.70
     Davidson diagonalization with overlap
     ethr =  1.00E-06,  avg # of iterations =  7.0

     negative rho (up, down):  4.906E-04 0.000E+00

     total cpu time spent up to now is      786.8 secs

     total energy              =    -176.27369796 Ry
     estimated scf accuracy    <       0.00404778 Ry

     iteration #  2     ecut=    60.00 Ry     beta= 0.70
     Davidson diagonalization with overlap
     ethr =  1.26E-05,  avg # of iterations =  2.0

     negative rho (up, down):  4.928E-04 0.000E+00

     total cpu time spent up to now is      792.2 secs

     total energy              =    -176.27447585 Ry
     estimated scf accuracy    <       0.00036748 Ry

     iteration #  3     ecut=    60.00 Ry     beta= 0.70
     Davidson diagonalization with overlap
     ethr =  1.15E-06,  avg # of iterations =  2.0

     negative rho (up, down):  4.933E-04 0.000E+00

     total cpu time spent up to now is      797.8 secs

     total energy              =    -176.27455980 Ry
     estimated scf accuracy    <       0.00006157 Ry

     iteration #  4     ecut=    60.00 Ry     beta= 0.70
     Davidson diagonalization with overlap
     ethr =  1.92E-07,  avg # of iterations =  2.0

     negative rho (up, down):  4.934E-04 0.000E+00

     total cpu time spent up to now is      803.1 secs

     total energy              =    -176.27457127 Ry
     estimated scf accuracy    <       0.00000247 Ry

     iteration #  5     ecut=    60.00 Ry     beta= 0.70
     Davidson diagonalization with overlap
     ethr =  7.73E-09,  avg # of iterations =  3.2

     negative rho (up, down):  4.934E-04 0.000E+00

     total cpu time spent up to now is      809.0 secs

     total energy              =    -176.27457154 Ry
     estimated scf accuracy    <       0.00000097 Ry

     iteration #  6     ecut=    60.00 Ry     beta= 0.70
     Davidson diagonalization with overlap
     ethr =  3.04E-09,  avg # of iterations =  2.7

     negative rho (up, down):  4.934E-04 0.000E+00

     total cpu time spent up to now is      814.5 secs

     total energy              =    -176.27457173 Ry
     estimated scf accuracy    <       0.00000003 Ry

     iteration #  7     ecut=    60.00 Ry     beta= 0.70
     Davidson diagonalization with overlap
     ethr =  8.51E-11,  avg # of iterations =  3.3

     negative rho (up, down):  4.934E-04 0.000E+00

     total cpu time spent up to now is      821.1 secs

     total energy              =    -176.27457174 Ry
     estimated scf accuracy    <       0.00000003 Ry

     iteration #  8     ecut=    60.00 Ry     beta= 0.70
     Davidson diagonalization with overlap
     ethr =  8.06E-11,  avg # of iterations =  2.1

     negative rho (up, down):  4.934E-04 0.000E+00

     total cpu time spent up to now is      826.5 secs

     total energy              =    -176.27457174 Ry
     estimated scf accuracy    <          2.0E-09 Ry

     iteration #  9     ecut=    60.00 Ry     beta= 0.70
     Davidson diagonalization with overlap
     ethr =  6.23E-12,  avg # of iterations =  4.1

     negative rho (up, down):  4.934E-04 0.000E+00

     total cpu time spent up to now is      833.1 secs

     total energy              =    -176.27457174 Ry
     estimated scf accuracy    <          1.1E-09 Ry

     iteration # 10     ecut=    60.00 Ry     beta= 0.70
     Davidson diagonalization with overlap
     ethr =  3.35E-12,  avg # of iterations =  2.3

     negative rho (up, down):  4.934E-04 0.000E+00

     total cpu time spent up to now is      838.1 secs

     End of self-consistent calculation

          k = 0.0000 0.0000 0.0000 ( 18047 PWs)   bands (ev):

   -25.1521 -24.5221 -23.5913 -23.2035 -12.6233 -12.2842 -12.0075 -11.7042
   -10.3478  -9.0432  -7.7012  -7.1548  -6.8758  -6.4496  -6.3736  -6.0970

          k =-0.0153 0.2863 0.0000 ( 18132 PWs)   bands (ev):

   -25.0608 -24.3807 -23.7062 -23.4005 -12.7018 -12.4233 -11.6607 -11.4902
   -10.2234  -9.0630  -7.8819  -7.4679  -6.8495  -6.5756  -6.3778  -6.0664

          k = 0.0307-0.5725 0.0000 ( 18166 PWs)   bands (ev):

   -24.9512 -24.1491 -23.8195 -23.7062 -12.8001 -12.4454 -11.4417 -11.2126
   -10.0673  -9.0524  -8.1901  -7.7644  -6.8485  -6.6401  -6.3691  -6.0145

          k = 0.2575-0.1328 0.0000 ( 18109 PWs)   bands (ev):

   -25.0712 -24.4520 -23.6876 -23.3053 -12.6399 -12.3729 -11.9486 -11.5856
   -10.2601  -9.0258  -7.8252  -7.3276  -6.8951  -6.4810  -6.2997  -6.0667

          k = 0.2421 0.1535 0.0000 ( 18132 PWs)   bands (ev):

   -25.0385 -24.3851 -23.7408 -23.3934 -12.5544 -12.2689 -11.9284 -11.5929
   -10.1387  -8.9708  -8.0356  -7.5670  -6.8669  -6.5333  -6.2615  -5.9936

          k = 0.2882-0.7053 0.0000 ( 18147 PWs)   bands (ev):

   -24.9220 -24.1692 -23.8445 -23.6996 -12.6802 -12.3985 -11.5969 -11.3038
    -9.9525  -8.9040  -8.3450  -7.9173  -6.8531  -6.6331  -6.2352  -5.9533

          k = 0.2728-0.4190 0.0000 ( 18128 PWs)   bands (ev):

   -24.9630 -24.2884 -23.7927 -23.5503 -12.6931 -12.5516 -11.5805 -11.3613
   -10.1083  -9.0298  -8.0267  -7.7084  -6.8834  -6.5926  -6.2589  -5.9976

          k =-0.5150 0.2656 0.0000 ( 18184 PWs)   bands (ev):

   -24.9754 -24.3759 -23.7855 -23.4258 -12.6755 -12.4300 -11.8900 -11.4801
   -10.1634  -9.0092  -7.9655  -7.4649  -6.9331  -6.4998  -6.2177  -6.0147

          k =-0.5303 0.5518 0.0000 ( 18128 PWs)   bands (ev):

   -24.9349 -24.2964 -23.8342 -23.5383 -12.5682 -12.4383 -11.7927 -11.4620
   -10.0131  -8.9265  -8.1862  -7.7788  -6.8957  -6.5621  -6.1643  -5.9357

          k =-0.4843-0.3070 0.0000 ( 18166 PWs)   bands (ev):

   -24.8902 -24.1877 -23.8793 -23.6876 -12.5182 -12.2675 -11.8553 -11.4205
    -9.8349  -8.7407  -8.5144  -8.0477  -6.8435  -6.6125  -6.1468  -5.9124

     highest occupied level (ev):    -5.9124

!    total energy              =    -176.27457174 Ry
     estimated scf accuracy    <          9.9E-11 Ry

     convergence has been achieved in  10 iterations

     negative rho (up, down):  4.934E-04 0.000E+00

     Forces acting on atoms (cartesian axes, Ry/au):

     atom    1 type  1   force =     0.00893387    0.00320725    0.00784787
     atom    2 type  1   force =    -0.00021815    0.00042213    0.00574629
     atom    3 type  1   force =     0.01113478   -0.02175757    0.00817853
     atom    4 type  1   force =    -0.00712673    0.01597064    0.02273103
     atom    5 type  1   force =    -0.00962121   -0.01070154   -0.02169624
     atom    6 type  1   force =    -0.00517052   -0.00765823   -0.01075695
     atom    7 type  1   force =     0.00274129   -0.00800913    0.01052887
     atom    8 type  1   force =    -0.02422654    0.03033478    0.00242672
     atom    9 type  2   force =     0.01743042    0.01280071   -0.01460618
     atom   10 type  2   force =    -0.00727064    0.01485877   -0.01915926
     atom   11 type  2   force =     0.01829468    0.01401808    0.00045822
     atom   12 type  2   force =    -0.00490126   -0.04348588    0.00830111

     Total force =     0.089907     Total SCF correction =     0.000012

     Entering Dynamics:    iteration =     9

     <vel(dt)|acc(dt)> =   0.88864018

ATOMIC_POSITIONS (angstrom)
H             4.2490541496        3.7034866609       11.2007197990
H             5.2417059890        4.2363413904       10.1341749535
H             3.2504822646        1.3226512232        7.9860600514
H             3.2342663762        2.7027338811        9.2494804301
H             4.1693436890        3.5256190514        8.2680792085
H             6.3757488352        4.2923939107        8.2161288893
H             3.1910693724        1.8035727027       11.1250749880
H             2.0339892635        2.8289077295       11.2348085541
O             5.1447108075        4.1232740400       11.0953129996
O             3.3438502660        2.9568417795        8.2877424389
O             5.4242916655        4.5940911445        8.3086181676
O             2.9768737722        2.7281932440       10.9334855977



     Writing config-only to output data dir ./output/f-BH.save/
     NEW-OLD atomic charge density approx. for the potential

     negative rho (up, down):  4.684E-04 0.000E+00

     total cpu time spent up to now is      850.8 secs

     per-process dynamical memory:   210.2 Mb

     Self-consistent Calculation

     iteration #  1     ecut=    60.00 Ry     beta= 0.70
     Davidson diagonalization with overlap
     ethr =  1.00E-06,  avg # of iterations =  7.7

     negative rho (up, down):  4.894E-04 0.000E+00

     total cpu time spent up to now is      863.5 secs

     total energy              =    -176.28731601 Ry
     estimated scf accuracy    <       0.00629535 Ry

     iteration #  2     ecut=    60.00 Ry     beta= 0.70
     Davidson diagonalization with overlap
     ethr =  1.97E-05,  avg # of iterations =  2.0

     negative rho (up, down):  4.928E-04 0.000E+00

     total cpu time spent up to now is      869.0 secs

     total energy              =    -176.28846511 Ry
     estimated scf accuracy    <       0.00100965 Ry

     iteration #  3     ecut=    60.00 Ry     beta= 0.70
     Davidson diagonalization with overlap
     ethr =  3.16E-06,  avg # of iterations =  2.0

     negative rho (up, down):  4.937E-04 0.000E+00

     total cpu time spent up to now is      874.5 secs

     total energy              =    -176.28870076 Ry
     estimated scf accuracy    <       0.00011854 Ry

     iteration #  4     ecut=    60.00 Ry     beta= 0.70
     Davidson diagonalization with overlap
     ethr =  3.70E-07,  avg # of iterations =  2.0

     negative rho (up, down):  4.940E-04 0.000E+00

     total cpu time spent up to now is      879.8 secs

     total energy              =    -176.28871829 Ry
     estimated scf accuracy    <       0.00000746 Ry

     iteration #  5     ecut=    60.00 Ry     beta= 0.70
     Davidson diagonalization with overlap
     ethr =  2.33E-08,  avg # of iterations =  2.9

     negative rho (up, down):  4.939E-04 0.000E+00

     total cpu time spent up to now is      885.5 secs

     total energy              =    -176.28872015 Ry
     estimated scf accuracy    <       0.00000173 Ry

     iteration #  6     ecut=    60.00 Ry     beta= 0.70
     Davidson diagonalization with overlap
     ethr =  5.40E-09,  avg # of iterations =  2.9

     negative rho (up, down):  4.939E-04 0.000E+00

     total cpu time spent up to now is      890.7 secs

     total energy              =    -176.28872038 Ry
     estimated scf accuracy    <       0.00000012 Ry

     iteration #  7     ecut=    60.00 Ry     beta= 0.70
     Davidson diagonalization with overlap
     ethr =  3.78E-10,  avg # of iterations =  2.8

     negative rho (up, down):  4.939E-04 0.000E+00

     total cpu time spent up to now is      896.6 secs

     total energy              =    -176.28872042 Ry
     estimated scf accuracy    <       0.00000002 Ry

     iteration #  8     ecut=    60.00 Ry     beta= 0.70
     Davidson diagonalization with overlap
     ethr =  6.08E-11,  avg # of iterations =  2.0

     negative rho (up, down):  4.939E-04 0.000E+00

     total cpu time spent up to now is      902.0 secs

     total energy              =    -176.28872042 Ry
     estimated scf accuracy    <          4.9E-09 Ry

     iteration #  9     ecut=    60.00 Ry     beta= 0.70
     Davidson diagonalization with overlap
     ethr =  1.54E-11,  avg # of iterations =  2.9

     negative rho (up, down):  4.939E-04 0.000E+00

     total cpu time spent up to now is      907.6 secs

     total energy              =    -176.28872042 Ry
     estimated scf accuracy    <          5.2E-10 Ry

     iteration # 10     ecut=    60.00 Ry     beta= 0.70
     Davidson diagonalization with overlap
     ethr =  1.64E-12,  avg # of iterations =  2.2

     negative rho (up, down):  4.939E-04 0.000E+00

     total cpu time spent up to now is      913.0 secs

     End of self-consistent calculation

          k = 0.0000 0.0000 0.0000 ( 18047 PWs)   bands (ev):

   -25.0547 -24.3631 -23.7294 -23.0766 -12.4901 -12.1954 -12.0497 -11.5367
   -10.2588  -8.9036  -7.7350  -7.1196  -6.7775  -6.4400  -6.3251  -5.9158

          k =-0.0153 0.2863 0.0000 ( 18132 PWs)   bands (ev):

   -24.9452 -24.2314 -23.8506 -23.2721 -12.6729 -12.1776 -11.7865 -11.3666
   -10.1038  -8.8883  -7.8965  -7.3763  -6.7590  -6.4998  -6.3928  -5.9244

          k = 0.0307-0.5725 0.0000 ( 18166 PWs)   bands (ev):

   -24.7974 -24.1372 -23.8407 -23.5980 -12.7858 -12.1791 -11.5942 -11.1633
    -9.8995  -8.8495  -8.1144  -7.7004  -6.7807  -6.5273  -6.4062  -5.8865

          k = 0.2575-0.1328 0.0000 ( 18109 PWs)   bands (ev):

   -24.9577 -24.2877 -23.8420 -23.1842 -12.5298 -12.3338 -11.9329 -11.3946
   -10.1451  -8.8773  -7.8824  -7.3287  -6.8037  -6.3959  -6.3116  -5.8661

          k = 0.2421 0.1535 0.0000 ( 18132 PWs)   bands (ev):

   -24.9281 -24.2422 -23.8821 -23.2484 -12.4782 -12.1597 -11.9751 -11.4867
   -10.0120  -8.7799  -8.0782  -7.4846  -6.7580  -6.4005  -6.3256  -5.8518

          k = 0.2882-0.7053 0.0000 ( 18147 PWs)   bands (ev):

   -24.7710 -24.1604 -23.9045 -23.5391 -12.6779 -12.1531 -11.7293 -11.2672
    -9.7728  -8.6758  -8.3315  -7.8378  -6.7673  -6.4887  -6.3034  -5.8255

          k = 0.2728-0.4190 0.0000 ( 18128 PWs)   bands (ev):

   -24.8153 -24.1741 -23.9293 -23.4273 -12.7092 -12.3179 -11.6667 -11.2226
    -9.9458  -8.8369  -8.0744  -7.6615  -6.8026  -6.4846  -6.2862  -5.8353

          k =-0.5150 0.2656 0.0000 ( 18184 PWs)   bands (ev):

   -24.8327 -24.2199 -23.9534 -23.3128 -12.5723 -12.4293 -11.8351 -11.2749
   -10.0153  -8.8483  -8.0481  -7.5063  -6.8389  -6.4125  -6.2227  -5.8027

          k =-0.5303 0.5518 0.0000 ( 18128 PWs)   bands (ev):

   -24.7907 -24.1883 -23.9744 -23.3943 -12.5400 -12.3253 -11.8292 -11.3211
    -9.8402  -8.7036  -8.2711  -7.7462  -6.8015  -6.4299  -6.2129  -5.7708

          k =-0.4843-0.3070 0.0000 ( 18166 PWs)   bands (ev):

   -24.7414 -24.1842 -23.9563 -23.4947 -12.4906 -12.0978 -11.9448 -11.3969
    -9.6391  -8.5547  -8.4674  -7.9895  -6.7399  -6.4378  -6.2419  -5.7879

     highest occupied level (ev):    -5.7708

!    total energy              =    -176.28872042 Ry
     estimated scf accuracy    <          3.9E-11 Ry

     convergence has been achieved in  10 iterations

     negative rho (up, down):  4.939E-04 0.000E+00

     Forces acting on atoms (cartesian axes, Ry/au):

     atom    1 type  1   force =    -0.00151924   -0.00246978    0.00312510
     atom    2 type  1   force =     0.00168331    0.00585340   -0.03267042
     atom    3 type  1   force =     0.00077970    0.03420457   -0.00600891
     atom    4 type  1   force =    -0.00385546    0.02031917   -0.01050765
     atom    5 type  1   force =    -0.00549624   -0.00049889   -0.01304429
     atom    6 type  1   force =    -0.01913782   -0.00627363   -0.00445594
     atom    7 type  1   force =     0.00286033   -0.04171614    0.01511270
     atom    8 type  1   force =     0.00235343    0.01996055   -0.00757934
     atom    9 type  2   force =     0.01834419    0.00447010    0.02767756
     atom   10 type  2   force =    -0.00906199    0.00887624    0.00823592
     atom   11 type  2   force =     0.03548334   -0.05363476    0.01049461
     atom   12 type  2   force =    -0.02243353    0.01090916    0.00962066

     Total force =     0.110651     Total SCF correction =     0.000007

     Entering Dynamics:    iteration =    10

     <vel(dt)|acc(dt)> =   0.94305072

ATOMIC_POSITIONS (angstrom)
H             4.2992325099        3.7009057942       11.2300598272
H             5.2524481733        4.2461948904       10.1195756000
H             3.3100193622        1.3172773309        7.9753280467
H             3.2185000092        2.7765872778        9.2882400215
H             4.1340060649        3.4798896607        8.1691643647
H             6.4086232716        4.2826902010        8.1678517306
H             3.1364244128        1.7641805557       11.1978018977
H             2.0142365841        2.8668192483       11.2361446314
O             5.1753678814        4.1275904753       11.0771661580
O             3.2660623938        2.9586364752        8.3013788403
O             5.4617794733        4.5951563828        8.3438122214
O             2.9586863142        2.7021784658       10.9331627384



     Writing config-only to output data dir ./output/f-BH.save/
     NEW-OLD atomic charge density approx. for the potential

     negative rho (up, down):  4.529E-04 0.000E+00

     total cpu time spent up to now is      925.7 secs

     per-process dynamical memory:   210.2 Mb

     Self-consistent Calculation

     iteration #  1     ecut=    60.00 Ry     beta= 0.70
     Davidson diagonalization with overlap
     ethr =  1.00E-06,  avg # of iterations =  9.0

     negative rho (up, down):  4.772E-04 0.000E+00

     total cpu time spent up to now is      939.8 secs

     total energy              =    -176.29528118 Ry
     estimated scf accuracy    <       0.00965248 Ry

     iteration #  2     ecut=    60.00 Ry     beta= 0.70
     Davidson diagonalization with overlap
     ethr =  3.02E-05,  avg # of iterations =  2.0

     negative rho (up, down):  4.837E-04 0.000E+00

     total cpu time spent up to now is      945.2 secs

     total energy              =    -176.29700598 Ry
     estimated scf accuracy    <       0.00071652 Ry

     iteration #  3     ecut=    60.00 Ry     beta= 0.70
     Davidson diagonalization with overlap
     ethr =  2.24E-06,  avg # of iterations =  2.0

     negative rho (up, down):  4.853E-04 0.000E+00

     total cpu time spent up to now is      950.7 secs

     total energy              =    -176.29713708 Ry
     estimated scf accuracy    <       0.00010719 Ry

     iteration #  4     ecut=    60.00 Ry     beta= 0.70
     Davidson diagonalization with overlap
     ethr =  3.35E-07,  avg # of iterations =  3.0

     negative rho (up, down):  4.858E-04 0.000E+00

     total cpu time spent up to now is      956.1 secs

     total energy              =    -176.29716069 Ry
     estimated scf accuracy    <       0.00002018 Ry

     iteration #  5     ecut=    60.00 Ry     beta= 0.70
     Davidson diagonalization with overlap
     ethr =  6.30E-08,  avg # of iterations =  3.1

     negative rho (up, down):  4.858E-04 0.000E+00

     total cpu time spent up to now is      961.5 secs

     total energy              =    -176.29716441 Ry
     estimated scf accuracy    <       0.00000050 Ry

     iteration #  6     ecut=    60.00 Ry     beta= 0.70
     Davidson diagonalization with overlap
     ethr =  1.55E-09,  avg # of iterations =  2.2

     negative rho (up, down):  4.858E-04 0.000E+00

     total cpu time spent up to now is      967.2 secs

     total energy              =    -176.29716452 Ry
     estimated scf accuracy    <       0.00000011 Ry

     iteration #  7     ecut=    60.00 Ry     beta= 0.70
     Davidson diagonalization with overlap
     ethr =  3.38E-10,  avg # of iterations =  2.9

     negative rho (up, down):  4.858E-04 0.000E+00

     total cpu time spent up to now is      972.8 secs

     total energy              =    -176.29716455 Ry
     estimated scf accuracy    <       0.00000001 Ry

     iteration #  8     ecut=    60.00 Ry     beta= 0.70
     Davidson diagonalization with overlap
     ethr =  4.26E-11,  avg # of iterations =  3.1

     negative rho (up, down):  4.858E-04 0.000E+00

     total cpu time spent up to now is      978.4 secs

     total energy              =    -176.29716455 Ry
     estimated scf accuracy    <          3.4E-09 Ry

     iteration #  9     ecut=    60.00 Ry     beta= 0.70
     Davidson diagonalization with overlap
     ethr =  1.05E-11,  avg # of iterations =  2.3

     negative rho (up, down):  4.858E-04 0.000E+00

     total cpu time spent up to now is      983.9 secs

     End of self-consistent calculation

          k = 0.0000 0.0000 0.0000 ( 18047 PWs)   bands (ev):

   -24.7614 -24.0496 -23.5927 -22.8429 -12.2283 -11.9362 -11.6486 -11.2992
   -10.0992  -8.7513  -7.6964  -7.0011  -6.5563  -6.3541  -6.1676  -5.7219

          k =-0.0153 0.2863 0.0000 ( 18132 PWs)   bands (ev):

   -24.6312 -23.9082 -23.7435 -23.0356 -12.4235 -11.7320 -11.6222 -11.1357
    -9.9158  -8.7109  -7.8256  -7.2122  -6.5747  -6.3707  -6.2481  -5.7664

          k = 0.0307-0.5725 0.0000 ( 18166 PWs)   bands (ev):

   -24.4200 -24.0046 -23.5791 -23.3855 -12.5325 -11.7496 -11.4579 -10.9773
    -9.6645  -8.6628  -7.9785  -7.5231  -6.6279  -6.3811  -6.2634  -5.7387

          k = 0.2575-0.1328 0.0000 ( 18109 PWs)   bands (ev):

   -24.6402 -23.9454 -23.7396 -22.9759 -12.3202 -11.8909 -11.6563 -11.1557
    -9.9368  -8.7111  -7.8546  -7.2496  -6.6090  -6.2754  -6.1948  -5.6529

          k = 0.2421 0.1535 0.0000 ( 18132 PWs)   bands (ev):

   -24.6217 -23.9313 -23.7663 -22.9933 -12.1876 -11.9571 -11.6005 -11.2937
    -9.8236  -8.5797  -8.0477  -7.3488  -6.5168  -6.2885  -6.1589  -5.6923

          k = 0.2882-0.7053 0.0000 ( 18147 PWs)   bands (ev):

   -24.3977 -24.0279 -23.6846 -23.2730 -12.4204 -11.7705 -11.5615 -11.0961
    -9.5319  -8.4555  -8.2595  -7.6805  -6.5866  -6.2786  -6.1975  -5.6757

          k = 0.2728-0.4190 0.0000 ( 18128 PWs)   bands (ev):

   -24.4390 -23.9841 -23.7088 -23.2401 -12.4790 -11.8584 -11.4829 -11.0099
    -9.6812  -8.6429  -8.0170  -7.5623  -6.6305  -6.3595  -6.1516  -5.6516

          k =-0.5150 0.2656 0.0000 ( 18184 PWs)   bands (ev):

   -24.4566 -23.9616 -23.7881 -23.1489 -12.3896 -11.9312 -11.5724 -11.0436
    -9.7392  -8.6684  -8.0301  -7.4932  -6.6482  -6.3174  -6.0909  -5.5785

          k =-0.5303 0.5518 0.0000 ( 18128 PWs)   bands (ev):

   -24.4194 -24.0014 -23.7720 -23.1734 -12.3193 -11.9146 -11.5993 -11.1208
    -9.5701  -8.4610  -8.2729  -7.6824  -6.5992  -6.2616  -6.1071  -5.5792

          k =-0.4843-0.3070 0.0000 ( 18166 PWs)   bands (ev):

   -24.3715 -24.0543 -23.7512 -23.2006 -12.1672 -11.9637 -11.5726 -11.2682
    -9.3816  -8.5608  -8.1561  -7.9054  -6.5020  -6.2016  -6.1565  -5.6484

     highest occupied level (ev):    -5.5785

!    total energy              =    -176.29716455 Ry
     estimated scf accuracy    <          8.1E-11 Ry

     convergence has been achieved in   9 iterations

     negative rho (up, down):  4.858E-04 0.000E+00

     Forces acting on atoms (cartesian axes, Ry/au):

     atom    1 type  1   force =    -0.01110121   -0.00719814   -0.00190118
     atom    2 type  1   force =     0.00064803    0.00728950   -0.04627980
     atom    3 type  1   force =    -0.01343003    0.02348474    0.00856173
     atom    4 type  1   force =    -0.00572525    0.01071987   -0.01013017
     atom    5 type  1   force =    -0.03179451   -0.01084499    0.00328191
     atom    6 type  1   force =    -0.02809532   -0.01245356    0.00883528
     atom    7 type  1   force =    -0.00356499   -0.00775143   -0.00092514
     atom    8 type  1   force =     0.01453075    0.01657139   -0.01432884
     atom    9 type  2   force =     0.02162664    0.00484857    0.04730384
     atom   10 type  2   force =     0.03052162    0.03033040   -0.00913251
     atom   11 type  2   force =     0.04532593   -0.04211677   -0.01290678
     atom   12 type  2   force =    -0.01894166   -0.01287958    0.02762166

     Total force =     0.127680     Total SCF correction =     0.000011

     Entering Dynamics:    iteration =    11

     <vel(dt)|acc(dt)> =   0.75451451

ATOMIC_POSITIONS (angstrom)
H             4.3300459373        3.7027554566       11.2563309688
H             5.2559862687        4.2627090019       10.0878495890
H             3.3345881928        1.3099108195        7.9899114038
H             3.2012893380        2.8522457117        9.2854848505
H             4.0774470528        3.4430664368        8.1088873764
H             6.4110275740        4.2443749385        8.1502249970
H             3.1105281963        1.7185579952       11.2440839182
H             1.9878317812        2.9417111216       11.2222205219
O             5.2231268519        4.1415601398       11.0777825238
O             3.2510178414        3.0009979031        8.3025571481
O             5.5194752888        4.5708752662        8.3417273330
O             2.9330221275        2.6293419672       10.9726254473



     Writing config-only to output data dir ./output/f-BH.save/
     NEW-OLD atomic charge density approx. for the potential

     negative rho (up, down):  4.510E-04 0.000E+00

     total cpu time spent up to now is      996.7 secs

     per-process dynamical memory:   210.2 Mb

     Self-consistent Calculation

     iteration #  1     ecut=    60.00 Ry     beta= 0.70
     Davidson diagonalization with overlap
     ethr =  1.00E-06,  avg # of iterations =  9.5

     negative rho (up, down):  4.759E-04 0.000E+00

     total cpu time spent up to now is     1010.9 secs

     total energy              =    -176.29790886 Ry
     estimated scf accuracy    <       0.01554002 Ry

     iteration #  2     ecut=    60.00 Ry     beta= 0.70
     Davidson diagonalization with overlap
     ethr =  4.86E-05,  avg # of iterations =  3.0

     negative rho (up, down):  4.802E-04 0.000E+00

     total cpu time spent up to now is     1017.1 secs

     total energy              =    -176.30092647 Ry
     estimated scf accuracy    <       0.00581074 Ry

     iteration #  3     ecut=    60.00 Ry     beta= 0.70
     Davidson diagonalization with overlap
     ethr =  1.82E-05,  avg # of iterations =  3.4

     negative rho (up, down):  4.813E-04 0.000E+00

     total cpu time spent up to now is     1022.8 secs

     total energy              =    -176.30230752 Ry
     estimated scf accuracy    <       0.00036864 Ry

     iteration #  4     ecut=    60.00 Ry     beta= 0.70
     Davidson diagonalization with overlap
     ethr =  1.15E-06,  avg # of iterations =  2.8

     negative rho (up, down):  4.821E-04 0.000E+00

     total cpu time spent up to now is     1028.2 secs

     total energy              =    -176.30237243 Ry
     estimated scf accuracy    <       0.00003778 Ry

     iteration #  5     ecut=    60.00 Ry     beta= 0.70
     Davidson diagonalization with overlap
     ethr =  1.18E-07,  avg # of iterations =  2.7

     negative rho (up, down):  4.821E-04 0.000E+00

     total cpu time spent up to now is     1034.0 secs

     total energy              =    -176.30238260 Ry
     estimated scf accuracy    <       0.00000337 Ry

     iteration #  6     ecut=    60.00 Ry     beta= 0.70
     Davidson diagonalization with overlap
     ethr =  1.05E-08,  avg # of iterations =  2.3

     negative rho (up, down):  4.820E-04 0.000E+00

     total cpu time spent up to now is     1039.2 secs

     total energy              =    -176.30238276 Ry
     estimated scf accuracy    <       0.00000070 Ry

     iteration #  7     ecut=    60.00 Ry     beta= 0.70
     Davidson diagonalization with overlap
     ethr =  2.18E-09,  avg # of iterations =  2.3

     negative rho (up, down):  4.820E-04 0.000E+00

     total cpu time spent up to now is     1045.0 secs

     total energy              =    -176.30238292 Ry
     estimated scf accuracy    <       0.00000005 Ry

     iteration #  8     ecut=    60.00 Ry     beta= 0.70
     Davidson diagonalization with overlap
     ethr =  1.50E-10,  avg # of iterations =  3.1

     negative rho (up, down):  4.820E-04 0.000E+00

     total cpu time spent up to now is     1051.4 secs

     total energy              =    -176.30238293 Ry
     estimated scf accuracy    <       0.00000003 Ry

     iteration #  9     ecut=    60.00 Ry     beta= 0.70
     Davidson diagonalization with overlap
     ethr =  1.09E-10,  avg # of iterations =  2.0

     negative rho (up, down):  4.820E-04 0.000E+00

     total cpu time spent up to now is     1056.9 secs

     total energy              =    -176.30238293 Ry
     estimated scf accuracy    <          2.7E-09 Ry

     iteration # 10     ecut=    60.00 Ry     beta= 0.70
     Davidson diagonalization with overlap
     ethr =  8.29E-12,  avg # of iterations =  3.7

     negative rho (up, down):  4.820E-04 0.000E+00

     total cpu time spent up to now is     1063.5 secs

     total energy              =    -176.30238293 Ry
     estimated scf accuracy    <          5.4E-10 Ry

     iteration # 11     ecut=    60.00 Ry     beta= 0.70
     Davidson diagonalization with overlap
     ethr =  1.68E-12,  avg # of iterations =  2.0

     negative rho (up, down):  4.820E-04 0.000E+00

     total cpu time spent up to now is     1068.9 secs

     End of self-consistent calculation

          k = 0.0000 0.0000 0.0000 ( 18047 PWs)   bands (ev):

   -24.5854 -24.1871 -23.3872 -23.0662 -12.1328 -12.0380 -11.8281 -11.6480
    -9.8816  -8.6251  -7.5810  -6.9396  -6.4115  -6.2319  -6.1755  -5.9249

          k =-0.0153 0.2863 0.0000 ( 18132 PWs)   bands (ev):

   -24.4404 -24.0498 -23.5676 -23.2376 -12.2774 -12.1594 -11.6240 -11.4007
    -9.6806  -8.5664  -7.7222  -7.1762  -6.4751  -6.3977  -6.1100  -5.8928

          k = 0.0307-0.5725 0.0000 ( 18166 PWs)   bands (ev):

   -24.1720 -23.9038 -23.7526 -23.5358 -12.3550 -12.2513 -11.4506 -11.2210
    -9.3957  -8.5001  -7.9128  -7.5115  -6.5909  -6.4214  -6.0426  -5.8396

          k = 0.2575-0.1328 0.0000 ( 18109 PWs)   bands (ev):

   -24.4557 -24.0624 -23.5463 -23.2223 -12.2998 -12.1209 -11.6169 -11.4757
    -9.6780  -8.5561  -7.8070  -7.2797  -6.4676  -6.3602  -5.9964  -5.7952

          k = 0.2421 0.1535 0.0000 ( 18132 PWs)   bands (ev):

   -24.4607 -24.0793 -23.5386 -23.2039 -12.1636 -12.0355 -11.8121 -11.6101
    -9.5854  -8.4706  -7.9137  -7.2533  -6.3306  -6.2337  -6.1340  -5.9164

          k = 0.2882-0.7053 0.0000 ( 18147 PWs)   bands (ev):

   -24.2262 -23.9129 -23.7573 -23.4548 -12.3104 -12.1789 -11.5939 -11.3603
    -9.2498  -8.2829  -8.2236  -7.6033  -6.4925  -6.3150  -6.0250  -5.8322

          k = 0.2728-0.4190 0.0000 ( 18128 PWs)   bands (ev):

   -24.2163 -23.8777 -23.7681 -23.4931 -12.3835 -12.2311 -11.4464 -11.2723
    -9.3728  -8.4603  -8.0019  -7.6343  -6.5293  -6.4329  -5.9329  -5.7643

          k =-0.5150 0.2656 0.0000 ( 18184 PWs)   bands (ev):

   -24.2509 -23.8770 -23.7598 -23.4589 -12.3932 -12.1970 -11.4503 -11.3430
    -9.3891  -8.4715  -8.0666  -7.6487  -6.5000  -6.4273  -5.8604  -5.6915

          k =-0.5303 0.5518 0.0000 ( 18128 PWs)   bands (ev):

   -24.2597 -23.9159 -23.7411 -23.4257 -12.3222 -12.1579 -11.5782 -11.4351
    -9.2352  -8.3140  -8.2369  -7.7078  -6.4522  -6.3304  -5.9262  -5.7451

          k =-0.4843-0.3070 0.0000 ( 18166 PWs)   bands (ev):

   -24.2668 -23.9508 -23.7235 -23.3974 -12.1974 -12.0265 -11.8260 -11.5487
    -9.0571  -8.5950  -7.9717  -7.7579  -6.3159  -6.1551  -6.1078  -5.8959

     highest occupied level (ev):    -5.6915

!    total energy              =    -176.30238293 Ry
     estimated scf accuracy    <          3.2E-11 Ry

     convergence has been achieved in  11 iterations

     negative rho (up, down):  4.820E-04 0.000E+00

     Forces acting on atoms (cartesian axes, Ry/au):

     atom    1 type  1   force =     0.02063651    0.00310089   -0.00809087
     atom    2 type  1   force =     0.00099695    0.00243418   -0.00217755
     atom    3 type  1   force =    -0.00703289    0.00154220    0.01627350
     atom    4 type  1   force =     0.00070099    0.00221612    0.00664889
     atom    5 type  1   force =     0.05032008    0.03489775   -0.00458147
     atom    6 type  1   force =     0.03645486   -0.02493251   -0.00521455
     atom    7 type  1   force =    -0.01243065   -0.04154976    0.01306706
     atom    8 type  1   force =     0.03368025   -0.01396316   -0.01017688
     atom    9 type  2   force =    -0.01524940   -0.01362253    0.00598298
     atom   10 type  2   force =    -0.05268022   -0.02503318   -0.00689618
     atom   11 type  2   force =    -0.03191223    0.00561940   -0.00552065
     atom   12 type  2   force =    -0.02348426    0.06929060    0.00068573

     Total force =     0.143000     Total SCF correction =     0.000006

     Entering Dynamics:    iteration =    12

     <vel(dt)|acc(dt)> =  -0.62343187

ATOMIC_POSITIONS (angstrom)
H             4.3312550172        3.7021191019       11.2536569500
H             5.2564295248        4.2631880372       10.0870669117
H             3.3323349395        1.3114988242        7.9912751192
H             3.2015244837        2.8487541616        9.2881821245
H             4.0845225314        3.4485487769        8.1111911194
H             6.4146803286        4.2427765274        8.1506884471
H             3.1055078124        1.7181717749       11.2445712399
H             1.9946437259        2.9346179727       11.2210840403
O             5.2185432437        4.1376023614       11.0808491761
O             3.2457040447        2.9968218141        8.2995177355
O             5.5154840324        4.5715307845        8.3405293855
O             2.9347567666        2.6424766214       10.9710738288



     Writing config-only to output data dir ./output/f-BH.save/
     NEW-OLD atomic charge density approx. for the potential

     negative rho (up, down):  4.839E-04 0.000E+00

     total cpu time spent up to now is     1081.6 secs

     per-process dynamical memory:   210.2 Mb

     Self-consistent Calculation

     iteration #  1     ecut=    60.00 Ry     beta= 0.70
     Davidson diagonalization with overlap
     ethr =  1.00E-06,  avg # of iterations =  4.8

     negative rho (up, down):  4.822E-04 0.000E+00

     total cpu time spent up to now is     1090.3 secs

     total energy              =    -176.30644610 Ry
     estimated scf accuracy    <       0.00039174 Ry

     iteration #  2     ecut=    60.00 Ry     beta= 0.70
     Davidson diagonalization with overlap
     ethr =  1.22E-06,  avg # of iterations =  2.2

     negative rho (up, down):  4.828E-04 0.000E+00

     total cpu time spent up to now is     1096.1 secs

     total energy              =    -176.30653642 Ry
     estimated scf accuracy    <       0.00008706 Ry

     iteration #  3     ecut=    60.00 Ry     beta= 0.70
     Davidson diagonalization with overlap
     ethr =  2.72E-07,  avg # of iterations =  2.1

     negative rho (up, down):  4.830E-04 0.000E+00

     total cpu time spent up to now is     1101.8 secs

     total energy              =    -176.30655318 Ry
     estimated scf accuracy    <       0.00000300 Ry

     iteration #  4     ecut=    60.00 Ry     beta= 0.70
     Davidson diagonalization with overlap
     ethr =  9.38E-09,  avg # of iterations =  2.3

     negative rho (up, down):  4.830E-04 0.000E+00

     total cpu time spent up to now is     1107.6 secs

     total energy              =    -176.30655375 Ry
     estimated scf accuracy    <       0.00000074 Ry

     iteration #  5     ecut=    60.00 Ry     beta= 0.70
     Davidson diagonalization with overlap
     ethr =  2.32E-09,  avg # of iterations =  2.2

     negative rho (up, down):  4.830E-04 0.000E+00

     total cpu time spent up to now is     1113.1 secs

     total energy              =    -176.30655386 Ry
     estimated scf accuracy    <       0.00000006 Ry

     iteration #  6     ecut=    60.00 Ry     beta= 0.70
     Davidson diagonalization with overlap
     ethr =  1.94E-10,  avg # of iterations =  2.8

     negative rho (up, down):  4.830E-04 0.000E+00

     total cpu time spent up to now is     1119.1 secs

     total energy              =    -176.30655387 Ry
     estimated scf accuracy    <       0.00000002 Ry

     iteration #  7     ecut=    60.00 Ry     beta= 0.70
     Davidson diagonalization with overlap
     ethr =  5.40E-11,  avg # of iterations =  2.0

     negative rho (up, down):  4.831E-04 0.000E+00

     total cpu time spent up to now is     1124.7 secs

     total energy              =    -176.30655388 Ry
     estimated scf accuracy    <          1.4E-09 Ry

     iteration #  8     ecut=    60.00 Ry     beta= 0.70
     Davidson diagonalization with overlap
     ethr =  4.24E-12,  avg # of iterations =  3.1

     negative rho (up, down):  4.830E-04 0.000E+00

     total cpu time spent up to now is     1131.4 secs

     total energy              =    -176.30655388 Ry
     estimated scf accuracy    <          8.8E-10 Ry

     iteration #  9     ecut=    60.00 Ry     beta= 0.70
     Davidson diagonalization with overlap
     ethr =  2.75E-12,  avg # of iterations =  2.1

     negative rho (up, down):  4.830E-04 0.000E+00

     total cpu time spent up to now is     1137.0 secs

     End of self-consistent calculation

          k = 0.0000 0.0000 0.0000 ( 18047 PWs)   bands (ev):

   -24.5667 -24.1642 -23.3645 -23.0442 -12.0821 -11.9612 -11.8245 -11.6347
    -9.9148  -8.6371  -7.6012  -6.9599  -6.4152  -6.2242  -6.2022  -5.9206

          k =-0.0153 0.2863 0.0000 ( 18132 PWs)   bands (ev):

   -24.4215 -24.0254 -23.5465 -23.2165 -12.2695 -12.0752 -11.5988 -11.3694
    -9.7134  -8.5837  -7.7421  -7.1911  -6.4807  -6.3933  -6.1317  -5.8946

          k = 0.0307-0.5725 0.0000 ( 18166 PWs)   bands (ev):

   -24.1543 -23.8689 -23.7376 -23.5180 -12.3637 -12.1636 -11.4137 -11.1840
    -9.4276  -8.5264  -7.9289  -7.5217  -6.5902  -6.4242  -6.0673  -5.8426

          k = 0.2575-0.1328 0.0000 ( 18109 PWs)   bands (ev):

   -24.4346 -24.0385 -23.5284 -23.1999 -12.2556 -12.0585 -11.6052 -11.4451
    -9.7160  -8.5726  -7.8209  -7.2881  -6.4794  -6.3522  -6.0249  -5.7959

          k = 0.2421 0.1535 0.0000 ( 18132 PWs)   bands (ev):

   -24.4390 -24.0540 -23.5225 -23.1823 -12.1174 -11.9581 -11.8024 -11.5926
    -9.6178  -8.4813  -7.9393  -7.2800  -6.3417  -6.2322  -6.1455  -5.9086

          k = 0.2882-0.7053 0.0000 ( 18147 PWs)   bands (ev):

   -24.2011 -23.8771 -23.7534 -23.4352 -12.3000 -12.0998 -11.5627 -11.3258
    -9.2813  -8.2961  -8.2501  -7.6275  -6.4968  -6.3145  -6.0431  -5.8286

          k = 0.2728-0.4190 0.0000 ( 18128 PWs)   bands (ev):

   -24.1922 -23.8452 -23.7605 -23.4724 -12.3632 -12.1638 -11.4147 -11.2382
    -9.4120  -8.4848  -8.0120  -7.6405  -6.5350  -6.4321  -5.9608  -5.7663

          k =-0.5150 0.2656 0.0000 ( 18184 PWs)   bands (ev):

   -24.2229 -23.8426 -23.7610 -23.4356 -12.3498 -12.1394 -11.4338 -11.3069
    -9.4365  -8.4964  -8.0671  -7.6507  -6.5146  -6.4192  -5.8915  -5.6944

          k =-0.5303 0.5518 0.0000 ( 18128 PWs)   bands (ev):

   -24.2309 -23.8812 -23.7427 -23.4036 -12.2808 -12.0982 -11.5545 -11.4046
    -9.2765  -8.3228  -8.2588  -7.7244  -6.4626  -6.3258  -5.9496  -5.7413

          k =-0.4843-0.3070 0.0000 ( 18166 PWs)   bands (ev):

   -24.2373 -23.9156 -23.7258 -23.3764 -12.1536 -11.9463 -11.8172 -11.5245
    -9.0883  -8.6106  -7.9688  -7.8175  -6.3284  -6.1560  -6.1171  -5.8825

     highest occupied level (ev):    -5.6944

!    total energy              =    -176.30655388 Ry
     estimated scf accuracy    <          1.4E-11 Ry

     convergence has been achieved in   9 iterations

     negative rho (up, down):  4.830E-04 0.000E+00

     Forces acting on atoms (cartesian axes, Ry/au):

     atom    1 type  1   force =     0.01141903   -0.00046563   -0.00587563
     atom    2 type  1   force =     0.00053036    0.00133579    0.00428672
     atom    3 type  1   force =    -0.00708269    0.00245683    0.01561111
     atom    4 type  1   force =    -0.00052704    0.00335422   -0.00043251
     atom    5 type  1   force =     0.02786142    0.02324597   -0.00047500
     atom    6 type  1   force =     0.02481941   -0.02094391   -0.00275124
     atom    7 type  1   force =    -0.01358347   -0.02241035    0.00603258
     atom    8 type  1   force =     0.02321682   -0.00707129   -0.00804530
     atom    9 type  2   force =    -0.00586859   -0.00538609   -0.00306672
     atom   10 type  2   force =    -0.02907897   -0.01299787   -0.00423609
     atom   11 type  2   force =    -0.02039279   -0.00056385   -0.00679481
     atom   12 type  2   force =    -0.01131350    0.03944618    0.00574690

     Total force =     0.086821     Total SCF correction =     0.000009

     Entering Dynamics:    iteration =    13

     <vel(dt)|acc(dt)> =   0.81484627

ATOMIC_POSITIONS (angstrom)
H             4.3293691317        3.6994720077       11.2471865560
H             5.2562487175        4.2637773940       10.0890812984
H             3.3214048456        1.3168601518        8.0008423836
H             3.2015872931        2.8428913430        9.2838606161
H             4.0961549600        3.4633686747        8.1226994964
H             6.4195403518        4.2327071520        8.1544579340
H             3.0963876103        1.7184845056       11.2398238936
H             2.0081477267        2.9261414116       11.2165962904
O             5.2146505805        4.1347104620       11.0825252269
O             3.2435281111        2.9927914168        8.2940136055
O             5.5088281241        4.5659939355        8.3330824435
O             2.9395389983        2.6609083036       10.9755163334



     Writing config-only to output data dir ./output/f-BH.save/
     NEW-OLD atomic charge density approx. for the potential

     negative rho (up, down):  4.884E-04 0.000E+00

     total cpu time spent up to now is     1149.7 secs

     per-process dynamical memory:   210.2 Mb

     Self-consistent Calculation

     iteration #  1     ecut=    60.00 Ry     beta= 0.70
     Davidson diagonalization with overlap
     ethr =  1.00E-06,  avg # of iterations =  5.0

     negative rho (up, down):  4.852E-04 0.000E+00

     total cpu time spent up to now is     1159.3 secs

     total energy              =    -176.31003355 Ry
     estimated scf accuracy    <       0.00065654 Ry

     iteration #  2     ecut=    60.00 Ry     beta= 0.70
     Davidson diagonalization with overlap
     ethr =  2.05E-06,  avg # of iterations =  2.0

     negative rho (up, down):  4.860E-04 0.000E+00

     total cpu time spent up to now is     1165.0 secs

     total energy              =    -176.31018021 Ry
     estimated scf accuracy    <       0.00013651 Ry

     iteration #  3     ecut=    60.00 Ry     beta= 0.70
     Davidson diagonalization with overlap
     ethr =  4.27E-07,  avg # of iterations =  2.0

     negative rho (up, down):  4.863E-04 0.000E+00

     total cpu time spent up to now is     1170.8 secs

     total energy              =    -176.31020475 Ry
     estimated scf accuracy    <       0.00000518 Ry

     iteration #  4     ecut=    60.00 Ry     beta= 0.70
     Davidson diagonalization with overlap
     ethr =  1.62E-08,  avg # of iterations =  2.2

     negative rho (up, down):  4.862E-04 0.000E+00

     total cpu time spent up to now is     1176.4 secs

     total energy              =    -176.31020565 Ry
     estimated scf accuracy    <       0.00000135 Ry

     iteration #  5     ecut=    60.00 Ry     beta= 0.70
     Davidson diagonalization with overlap
     ethr =  4.22E-09,  avg # of iterations =  2.1

     negative rho (up, down):  4.862E-04 0.000E+00

     total cpu time spent up to now is     1182.0 secs

     total energy              =    -176.31020585 Ry
     estimated scf accuracy    <       0.00000012 Ry

     iteration #  6     ecut=    60.00 Ry     beta= 0.70
     Davidson diagonalization with overlap
     ethr =  3.91E-10,  avg # of iterations =  2.5

     negative rho (up, down):  4.863E-04 0.000E+00

     total cpu time spent up to now is     1187.9 secs

     total energy              =    -176.31020587 Ry
     estimated scf accuracy    <       0.00000002 Ry

     iteration #  7     ecut=    60.00 Ry     beta= 0.70
     Davidson diagonalization with overlap
     ethr =  6.51E-11,  avg # of iterations =  2.4

     negative rho (up, down):  4.863E-04 0.000E+00

     total cpu time spent up to now is     1193.6 secs

     total energy              =    -176.31020588 Ry
     estimated scf accuracy    <          1.2E-09 Ry

     iteration #  8     ecut=    60.00 Ry     beta= 0.70
     Davidson diagonalization with overlap
     ethr =  3.79E-12,  avg # of iterations =  2.0

     negative rho (up, down):  4.863E-04 0.000E+00

     total cpu time spent up to now is     1199.2 secs

     total energy              =    -176.31020588 Ry
     estimated scf accuracy    <          4.2E-10 Ry

     iteration #  9     ecut=    60.00 Ry     beta= 0.70
     Davidson diagonalization with overlap
     ethr =  1.31E-12,  avg # of iterations =  2.6

     negative rho (up, down):  4.863E-04 0.000E+00

     total cpu time spent up to now is     1205.1 secs

     End of self-consistent calculation

          k = 0.0000 0.0000 0.0000 ( 18047 PWs)   bands (ev):

   -24.5923 -24.1679 -23.3835 -23.0303 -12.0916 -11.9255 -11.8080 -11.6513
    -9.9796  -8.7033  -7.6151  -7.0063  -6.4428  -6.2644  -6.2339  -5.9633

          k =-0.0153 0.2863 0.0000 ( 18132 PWs)   bands (ev):

   -24.4497 -24.0272 -23.5620 -23.2062 -12.2992 -12.0293 -11.5880 -11.3640
    -9.7758  -8.6536  -7.7639  -7.2394  -6.5105  -6.4116  -6.1857  -5.9308

          k = 0.0307-0.5725 0.0000 ( 18166 PWs)   bands (ev):

   -24.1981 -23.8616 -23.7432 -23.5120 -12.4032 -12.1169 -11.3932 -11.1726
    -9.4863  -8.5981  -7.9616  -7.5741  -6.6105  -6.4437  -6.1259  -5.8763

          k = 0.2575-0.1328 0.0000 ( 18109 PWs)   bands (ev):

   -24.4590 -24.0418 -23.5502 -23.1862 -12.2419 -12.0362 -11.6170 -11.4389
    -9.7875  -8.6405  -7.8306  -7.3240  -6.5178  -6.3569  -6.0894  -5.8424

          k = 0.2421 0.1535 0.0000 ( 18132 PWs)   bands (ev):

   -24.4613 -24.0544 -23.5478 -23.1713 -12.1249 -11.9168 -11.8043 -11.5874
    -9.6805  -8.5465  -7.9606  -7.3365  -6.3850  -6.2539  -6.1794  -5.9462

          k = 0.2882-0.7053 0.0000 ( 18147 PWs)   bands (ev):

   -24.2265 -23.8716 -23.7778 -23.4287 -12.3258 -12.0621 -11.5457 -11.3108
    -9.3411  -8.3641  -8.2775  -7.6917  -6.5250  -6.3358  -6.0905  -5.8614

          k = 0.2728-0.4190 0.0000 ( 18128 PWs)   bands (ev):

   -24.2224 -23.8481 -23.7762 -23.4602 -12.3749 -12.1332 -11.4045 -11.2299
    -9.4845  -8.5493  -8.0329  -7.6851  -6.5665  -6.4400  -6.0250  -5.8066

          k =-0.5150 0.2656 0.0000 ( 18184 PWs)   bands (ev):

   -24.2440 -23.8399 -23.7968 -23.4185 -12.3300 -12.1204 -11.4515 -11.2930
    -9.5229  -8.5589  -8.0727  -7.6829  -6.5577  -6.4149  -5.9624  -5.7422

          k =-0.5303 0.5518 0.0000 ( 18128 PWs)   bands (ev):

   -24.2480 -23.8759 -23.7809 -23.3919 -12.2691 -12.0811 -11.5556 -11.3905
    -9.3543  -8.3505  -8.3068  -7.7750  -6.5001  -6.3338  -6.0063  -5.7826

          k =-0.4843-0.3070 0.0000 ( 18166 PWs)   bands (ev):

   -24.2504 -23.9081 -23.7671 -23.3691 -12.1604 -11.8975 -11.8320 -11.5042
    -9.1573  -8.6307  -7.9821  -7.9332  -6.3752  -6.1841  -6.1431  -5.9133

     highest occupied level (ev):    -5.7422

!    total energy              =    -176.31020588 Ry
     estimated scf accuracy    <          4.7E-11 Ry

     convergence has been achieved in   9 iterations

     negative rho (up, down):  4.863E-04 0.000E+00

     Forces acting on atoms (cartesian axes, Ry/au):

     atom    1 type  1   force =     0.00679163   -0.00174518   -0.00373460
     atom    2 type  1   force =     0.00072413    0.00058012    0.00488112
     atom    3 type  1   force =    -0.00365540   -0.00351362    0.01478642
     atom    4 type  1   force =    -0.00227825    0.00428286   -0.00215774
     atom    5 type  1   force =     0.00472180    0.01043952    0.00175796
     atom    6 type  1   force =     0.01008165   -0.01330363   -0.00147938
     atom    7 type  1   force =    -0.01279533   -0.00509756    0.00029134
     atom    8 type  1   force =     0.00255747    0.00336870   -0.00257216
     atom    9 type  2   force =    -0.00226133    0.00049565   -0.00616981
     atom   10 type  2   force =    -0.00455891   -0.00022192   -0.00422288
     atom   11 type  2   force =    -0.00875316   -0.00224560   -0.00785238
     atom   12 type  2   force =     0.00942572    0.00696065    0.00647213

     Total force =     0.037342     Total SCF correction =     0.000008

     Entering Dynamics:    iteration =    14

     <vel(dt)|acc(dt)> =   0.49924779

ATOMIC_POSITIONS (angstrom)
H             4.3373880653        3.6967624928       11.2443553665
H             5.2574981629        4.2663464618       10.0865256598
H             3.3175366603        1.3168457929        8.0170685892
H             3.1974824844        2.8527083748        9.2822517617
H             4.0979721620        3.4728128341        8.1206395198
H             6.4269983604        4.2148704275        8.1516794399
H             3.0790846755        1.7082078219       11.2446006648
H             2.0134937548        2.9334749208       11.2110865588
O             5.2174176240        4.1358607555       11.0824016981
O             3.2356239236        2.9954488057        8.2874675500
O             5.5103254206        4.5577419032        8.3250075886
O             2.9445651569        2.6670261670       10.9866016807



     Writing config-only to output data dir ./output/f-BH.save/
     NEW-OLD atomic charge density approx. for the potential

     negative rho (up, down):  4.880E-04 0.000E+00

     total cpu time spent up to now is     1217.9 secs

     per-process dynamical memory:   210.2 Mb

     Self-consistent Calculation

     iteration #  1     ecut=    60.00 Ry     beta= 0.70
     Davidson diagonalization with overlap
     ethr =  1.00E-06,  avg # of iterations =  4.8

     negative rho (up, down):  4.863E-04 0.000E+00

     total cpu time spent up to now is     1226.9 secs

     total energy              =    -176.31204987 Ry
     estimated scf accuracy    <       0.00040455 Ry

     iteration #  2     ecut=    60.00 Ry     beta= 0.70
     Davidson diagonalization with overlap
     ethr =  1.26E-06,  avg # of iterations =  2.3

     negative rho (up, down):  4.875E-04 0.000E+00

     total cpu time spent up to now is     1232.7 secs

     total energy              =    -176.31213707 Ry
     estimated scf accuracy    <       0.00009708 Ry

     iteration #  3     ecut=    60.00 Ry     beta= 0.70
     Davidson diagonalization with overlap
     ethr =  3.03E-07,  avg # of iterations =  2.3

     negative rho (up, down):  4.878E-04 0.000E+00

     total cpu time spent up to now is     1238.2 secs

     total energy              =    -176.31215633 Ry
     estimated scf accuracy    <       0.00000401 Ry

     iteration #  4     ecut=    60.00 Ry     beta= 0.70
     Davidson diagonalization with overlap
     ethr =  1.25E-08,  avg # of iterations =  2.0

     negative rho (up, down):  4.877E-04 0.000E+00

     total cpu time spent up to now is     1243.7 secs

     total energy              =    -176.31215687 Ry
     estimated scf accuracy    <       0.00000072 Ry

     iteration #  5     ecut=    60.00 Ry     beta= 0.70
     Davidson diagonalization with overlap
     ethr =  2.25E-09,  avg # of iterations =  2.1

     negative rho (up, down):  4.877E-04 0.000E+00

     total cpu time spent up to now is     1249.3 secs

     total energy              =    -176.31215699 Ry
     estimated scf accuracy    <       0.00000006 Ry

     iteration #  6     ecut=    60.00 Ry     beta= 0.70
     Davidson diagonalization with overlap
     ethr =  1.89E-10,  avg # of iterations =  3.1

     negative rho (up, down):  4.877E-04 0.000E+00

     total cpu time spent up to now is     1255.5 secs

     total energy              =    -176.31215701 Ry
     estimated scf accuracy    <       0.00000001 Ry

     iteration #  7     ecut=    60.00 Ry     beta= 0.70
     Davidson diagonalization with overlap
     ethr =  3.20E-11,  avg # of iterations =  2.8

     negative rho (up, down):  4.877E-04 0.000E+00

     total cpu time spent up to now is     1261.0 secs

     total energy              =    -176.31215701 Ry
     estimated scf accuracy    <          1.1E-10 Ry

     iteration #  8     ecut=    60.00 Ry     beta= 0.70
     Davidson diagonalization with overlap
     ethr =  3.57E-13,  avg # of iterations =  4.4

     negative rho (up, down):  4.877E-04 0.000E+00

     total cpu time spent up to now is     1268.2 secs

     total energy              =    -176.31215701 Ry
     estimated scf accuracy    <          1.2E-10 Ry

     iteration #  9     ecut=    60.00 Ry     beta= 0.70
     Davidson diagonalization with overlap
     ethr =  3.57E-13,  avg # of iterations =  2.7

     negative rho (up, down):  4.877E-04 0.000E+00

     total cpu time spent up to now is     1273.7 secs

     End of self-consistent calculation

          k = 0.0000 0.0000 0.0000 ( 18047 PWs)   bands (ev):

   -24.5951 -24.1698 -23.3784 -23.0116 -12.0574 -11.9168 -11.7967 -11.6981
   -10.0143  -8.7598  -7.6055  -7.0265  -6.4551  -6.2974  -6.2460  -6.0204

          k =-0.0153 0.2863 0.0000 ( 18132 PWs)   bands (ev):

   -24.4527 -24.0294 -23.5558 -23.1893 -12.2856 -12.0230 -11.5806 -11.3757
    -9.8101  -8.7109  -7.7636  -7.2734  -6.5259  -6.4291  -6.2111  -5.9701

          k = 0.0307-0.5725 0.0000 ( 18166 PWs)   bands (ev):

   -24.2037 -23.8658 -23.7364 -23.4924 -12.3932 -12.1130 -11.3793 -11.1768
    -9.5172  -8.6532  -7.9768  -7.6206  -6.6221  -6.4540  -6.1505  -5.9109

          k = 0.2575-0.1328 0.0000 ( 18109 PWs)   bands (ev):

   -24.4593 -24.0416 -23.5476 -23.1719 -12.2271 -12.0244 -11.6166 -11.4478
    -9.8170  -8.6937  -7.8330  -7.3580  -6.5271  -6.3674  -6.1252  -5.8949

          k = 0.2421 0.1535 0.0000 ( 18132 PWs)   bands (ev):

   -24.4624 -24.0569 -23.5432 -23.1548 -12.0857 -11.9122 -11.8159 -11.6082
    -9.7119  -8.6062  -7.9545  -7.3625  -6.3894  -6.2836  -6.1970  -6.0034

          k = 0.2882-0.7053 0.0000 ( 18147 PWs)   bands (ev):

   -24.2265 -23.8891 -23.7592 -23.4136 -12.3082 -12.0636 -11.5366 -11.3168
    -9.3688  -8.4220  -8.2867  -7.7324  -6.5342  -6.3496  -6.1168  -5.9022

          k = 0.2728-0.4190 0.0000 ( 18128 PWs)   bands (ev):

   -24.2211 -23.8603 -23.7612 -23.4490 -12.3635 -12.1296 -11.3904 -11.2327
    -9.5085  -8.5935  -8.0551  -7.7379  -6.5751  -6.4452  -6.0577  -5.8494

          k =-0.5150 0.2656 0.0000 ( 18184 PWs)   bands (ev):

   -24.2368 -23.8569 -23.7786 -23.4128 -12.3174 -12.1134 -11.4426 -11.2926
    -9.5417  -8.5990  -8.0932  -7.7396  -6.5649  -6.4175  -6.0032  -5.7922

          k =-0.5303 0.5518 0.0000 ( 18128 PWs)   bands (ev):

   -24.2422 -23.8923 -23.7653 -23.3819 -12.2492 -12.0791 -11.5529 -11.3930
    -9.3753  -8.3966  -8.3219  -7.8221  -6.5058  -6.3419  -6.0425  -5.8328

          k =-0.4843-0.3070 0.0000 ( 18166 PWs)   bands (ev):

   -24.2460 -23.9254 -23.7520 -23.3554 -12.1199 -11.9024 -11.8418 -11.5144
    -9.1840  -8.6612  -8.0100  -7.9676  -6.3793  -6.2006  -6.1696  -5.9695

     highest occupied level (ev):    -5.7922

!    total energy              =    -176.31215701 Ry
     estimated scf accuracy    <          2.1E-12 Ry

     convergence has been achieved in   9 iterations

     negative rho (up, down):  4.877E-04 0.000E+00

     Forces acting on atoms (cartesian axes, Ry/au):

     atom    1 type  1   force =     0.00166370   -0.00411406   -0.00170594
     atom    2 type  1   force =     0.00131081   -0.00024710    0.00760003
     atom    3 type  1   force =    -0.00045420   -0.00491737    0.01173481
     atom    4 type  1   force =    -0.00264701    0.00411869   -0.00643854
     atom    5 type  1   force =    -0.00762169    0.00351451    0.00281505
     atom    6 type  1   force =     0.00046356   -0.00656084   -0.00103418
     atom    7 type  1   force =    -0.01216955    0.00899692   -0.00399919
     atom    8 type  1   force =    -0.00243290    0.00593680   -0.00035541
     atom    9 type  2   force =     0.00151720    0.00499499   -0.01164455
     atom   10 type  2   force =     0.00899681    0.00549021    0.00140159
     atom   11 type  2   force =    -0.00333080   -0.00637351   -0.00570547
     atom   12 type  2   force =     0.01470407   -0.01083923    0.00733181

     Total force =     0.038292     Total SCF correction =     0.000002

     Entering Dynamics:    iteration =    15

     <vel(dt)|acc(dt)> =   0.97428938

ATOMIC_POSITIONS (angstrom)
H             4.3489887189        3.6901137860       11.2395977435
H             5.2603364847        4.2698415469       10.0841399562
H             3.3126427516        1.3148137407        8.0459234263
H             3.1901792358        2.8696137135        9.2753004018
H             4.0977017683        3.4889964900        8.1180693119
H             6.4356200012        4.1866653511        8.1462370149
H             3.0497879166        1.6966004374       11.2494510015
H             2.0220962038        2.9480018658       11.2025048244
O             5.2237869303        4.1413646148       11.0780504599
O             3.2279750706        3.0016776669        8.2814405078
O             5.5118141404        4.5398978097        8.3121120146
O             2.9544572286        2.6705197353       11.0068594151



     Writing config-only to output data dir ./output/f-BH.save/
     NEW-OLD atomic charge density approx. for the potential

     negative rho (up, down):  4.866E-04 0.000E+00

     total cpu time spent up to now is     1286.5 secs

     per-process dynamical memory:   210.2 Mb

     Self-consistent Calculation

     iteration #  1     ecut=    60.00 Ry     beta= 0.70
     Davidson diagonalization with overlap
     ethr =  1.00E-06,  avg # of iterations =  5.8

     negative rho (up, down):  4.859E-04 0.000E+00

     total cpu time spent up to now is     1296.7 secs

     total energy              =    -176.31399939 Ry
     estimated scf accuracy    <       0.00084356 Ry

     iteration #  2     ecut=    60.00 Ry     beta= 0.70
     Davidson diagonalization with overlap
     ethr =  2.64E-06,  avg # of iterations =  2.0

     negative rho (up, down):  4.874E-04 0.000E+00

     total cpu time spent up to now is     1302.1 secs

     total energy              =    -176.31413780 Ry
     estimated scf accuracy    <       0.00010340 Ry

     iteration #  3     ecut=    60.00 Ry     beta= 0.70
     Davidson diagonalization with overlap
     ethr =  3.23E-07,  avg # of iterations =  2.0

     negative rho (up, down):  4.878E-04 0.000E+00

     total cpu time spent up to now is     1307.7 secs

     total energy              =    -176.31416060 Ry
     estimated scf accuracy    <       0.00000992 Ry

     iteration #  4     ecut=    60.00 Ry     beta= 0.70
     Davidson diagonalization with overlap
     ethr =  3.10E-08,  avg # of iterations =  2.0

     negative rho (up, down):  4.880E-04 0.000E+00

     total cpu time spent up to now is     1312.9 secs

     total energy              =    -176.31416176 Ry
     estimated scf accuracy    <       0.00000061 Ry

     iteration #  5     ecut=    60.00 Ry     beta= 0.70
     Davidson diagonalization with overlap
     ethr =  1.89E-09,  avg # of iterations =  2.8

     negative rho (up, down):  4.880E-04 0.000E+00

     total cpu time spent up to now is     1318.9 secs

     total energy              =    -176.31416191 Ry
     estimated scf accuracy    <       0.00000009 Ry

     iteration #  6     ecut=    60.00 Ry     beta= 0.70
     Davidson diagonalization with overlap
     ethr =  2.84E-10,  avg # of iterations =  2.2

     negative rho (up, down):  4.881E-04 0.000E+00

     total cpu time spent up to now is     1324.5 secs

     total energy              =    -176.31416192 Ry
     estimated scf accuracy    <       0.00000001 Ry

     iteration #  7     ecut=    60.00 Ry     beta= 0.70
     Davidson diagonalization with overlap
     ethr =  3.86E-11,  avg # of iterations =  2.4

     negative rho (up, down):  4.881E-04 0.000E+00

     total cpu time spent up to now is     1330.4 secs

     total energy              =    -176.31416193 Ry
     estimated scf accuracy    <          8.3E-10 Ry

     iteration #  8     ecut=    60.00 Ry     beta= 0.70
     Davidson diagonalization with overlap
     ethr =  2.59E-12,  avg # of iterations =  2.8

     negative rho (up, down):  4.881E-04 0.000E+00

     total cpu time spent up to now is     1336.5 secs

     total energy              =    -176.31416193 Ry
     estimated scf accuracy    <          1.2E-10 Ry

     iteration #  9     ecut=    60.00 Ry     beta= 0.70
     Davidson diagonalization with overlap
     ethr =  3.84E-13,  avg # of iterations =  2.0

     negative rho (up, down):  4.881E-04 0.000E+00

     total cpu time spent up to now is     1341.7 secs

     End of self-consistent calculation

          k = 0.0000 0.0000 0.0000 ( 18047 PWs)   bands (ev):

   -24.6203 -24.2082 -23.3833 -23.0157 -12.0326 -11.9341 -11.8368 -11.7626
   -10.0601  -8.8612  -7.5809  -7.0526  -6.4844  -6.3308  -6.2933  -6.1073

          k =-0.0153 0.2863 0.0000 ( 18132 PWs)   bands (ev):

   -24.4785 -24.0726 -23.5584 -23.1918 -12.2666 -12.0735 -11.5972 -11.4181
    -9.8560  -8.8116  -7.7530  -7.3261  -6.5518  -6.4659  -6.2459  -6.0328

          k = 0.0307-0.5725 0.0000 ( 18166 PWs)   bands (ev):

   -24.2346 -23.9144 -23.7496 -23.4752 -12.3702 -12.1672 -11.3938 -11.2153
    -9.5600  -8.7496  -7.9875  -7.6933  -6.6409  -6.4741  -6.1819  -5.9699

          k = 0.2575-0.1328 0.0000 ( 18109 PWs)   bands (ev):

   -24.4830 -24.0804 -23.5523 -23.1806 -12.2298 -12.0541 -11.6270 -11.4917
    -9.8539  -8.7898  -7.8249  -7.4073  -6.5428  -6.3963  -6.1702  -5.9869

          k = 0.2421 0.1535 0.0000 ( 18132 PWs)   bands (ev):

   -24.4868 -24.0981 -23.5457 -23.1616 -12.0560 -11.9407 -11.8619 -11.6583
    -9.7516  -8.7064  -7.9384  -7.3984  -6.3999  -6.3303  -6.2332  -6.0982

          k = 0.2882-0.7053 0.0000 ( 18147 PWs)   bands (ev):

   -24.2526 -23.9496 -23.7485 -23.4138 -12.2862 -12.1176 -11.5534 -11.3573
    -9.4043  -8.5181  -8.2914  -7.7942  -6.5493  -6.3784  -6.1517  -5.9747

          k = 0.2728-0.4190 0.0000 ( 18128 PWs)   bands (ev):

   -24.2463 -23.9163 -23.7558 -23.4503 -12.3529 -12.1749 -11.3997 -11.2695
    -9.5388  -8.6764  -8.0737  -7.8175  -6.5874  -6.4602  -6.0998  -5.9262

          k =-0.5150 0.2656 0.0000 ( 18184 PWs)   bands (ev):

   -24.2569 -23.9193 -23.7597 -23.4279 -12.3225 -12.1459 -11.4432 -11.3314
    -9.5623  -8.6753  -8.1110  -7.8210  -6.5745  -6.4299  -6.0570  -5.8838

          k =-0.5303 0.5518 0.0000 ( 18128 PWs)   bands (ev):

   -24.2632 -23.9535 -23.7488 -23.3941 -12.2455 -12.1155 -11.5662 -11.4324
    -9.3985  -8.4797  -8.3341  -7.8883  -6.5146  -6.3631  -6.0902  -5.9263

          k =-0.4843-0.3070 0.0000 ( 18166 PWs)   bands (ev):

   -24.2678 -23.9861 -23.7369 -23.3648 -12.0908 -11.9427 -11.8794 -11.5589
    -9.2178  -8.6971  -8.0942  -7.9816  -6.3877  -6.2417  -6.1962  -6.0742

     highest occupied level (ev):    -5.8838

!    total energy              =    -176.31416193 Ry
     estimated scf accuracy    <          1.0E-11 Ry

     convergence has been achieved in   9 iterations

     negative rho (up, down):  4.881E-04 0.000E+00

     Forces acting on atoms (cartesian axes, Ry/au):

     atom    1 type  1   force =     0.00156387   -0.00427977   -0.00043178
     atom    2 type  1   force =     0.00229160   -0.00056622    0.00372143
     atom    3 type  1   force =     0.00409304   -0.01141150    0.00797468
     atom    4 type  1   force =    -0.00211032    0.00281416   -0.00285122
     atom    5 type  1   force =    -0.01704283   -0.00272232    0.00357579
     atom    6 type  1   force =    -0.00908833    0.00154328   -0.00104858
     atom    7 type  1   force =    -0.00818730    0.01617564   -0.00559320
     atom    8 type  1   force =    -0.00472968    0.00791171    0.00186337
     atom    9 type  2   force =    -0.00079884    0.00519775   -0.00945797
     atom   10 type  2   force =     0.01959482    0.00972348    0.00049321
     atom   11 type  2   force =     0.00026601   -0.00457735   -0.00373246
     atom   12 type  2   force =     0.01414795   -0.01980886    0.00548672

     Total force =     0.048683     Total SCF correction =     0.000004

     Entering Dynamics:    iteration =    16

     <vel(dt)|acc(dt)> =   0.96984205

ATOMIC_POSITIONS (angstrom)
H             4.3691529714        3.6795197029       11.2340296309
H             5.2664274097        4.2743117866       10.0775859733
H             3.3139217479        1.3023581820        8.0861717577
H             3.1794420908        2.8963980944        9.2694228281
H             4.0882372081        3.5071842516        8.1111581825
H             6.4416840940        4.1530887167        8.1352535459
H             3.0093396509        1.6837155071       11.2570032751
H             2.0316483727        2.9738817506       11.1928215183
O             5.2307738746        4.1511339399       11.0710488559
O             3.2241617182        3.0143601273        8.2740889019
O             5.5131279058        4.5148707921        8.2965086128
O             2.9674694067        2.6672839069       11.0345929955



     Writing config-only to output data dir ./output/f-BH.save/
     NEW-OLD atomic charge density approx. for the potential

     negative rho (up, down):  4.813E-04 0.000E+00

     total cpu time spent up to now is     1354.4 secs

     per-process dynamical memory:   210.2 Mb

     Self-consistent Calculation

     iteration #  1     ecut=    60.00 Ry     beta= 0.70
     Davidson diagonalization with overlap
     ethr =  1.00E-06,  avg # of iterations =  6.3

     negative rho (up, down):  4.830E-04 0.000E+00

     total cpu time spent up to now is     1365.7 secs

     total energy              =    -176.31574608 Ry
     estimated scf accuracy    <       0.00145389 Ry

     iteration #  2     ecut=    60.00 Ry     beta= 0.70
     Davidson diagonalization with overlap
     ethr =  4.54E-06,  avg # of iterations =  2.0

     negative rho (up, down):  4.850E-04 0.000E+00

     total cpu time spent up to now is     1371.2 secs

     total energy              =    -176.31597320 Ry
     estimated scf accuracy    <       0.00009781 Ry

     iteration #  3     ecut=    60.00 Ry     beta= 0.70
     Davidson diagonalization with overlap
     ethr =  3.06E-07,  avg # of iterations =  2.0

     negative rho (up, down):  4.858E-04 0.000E+00

     total cpu time spent up to now is     1376.7 secs

     total energy              =    -176.31599169 Ry
     estimated scf accuracy    <       0.00001203 Ry

     iteration #  4     ecut=    60.00 Ry     beta= 0.70
     Davidson diagonalization with overlap
     ethr =  3.76E-08,  avg # of iterations =  2.0

     negative rho (up, down):  4.860E-04 0.000E+00

     total cpu time spent up to now is     1382.3 secs

     total energy              =    -176.31599409 Ry
     estimated scf accuracy    <       0.00000135 Ry

     iteration #  5     ecut=    60.00 Ry     beta= 0.70
     Davidson diagonalization with overlap
     ethr =  4.22E-09,  avg # of iterations =  2.0

     negative rho (up, down):  4.861E-04 0.000E+00

     total cpu time spent up to now is     1387.8 secs

     total energy              =    -176.31599433 Ry
     estimated scf accuracy    <       0.00000006 Ry

     iteration #  6     ecut=    60.00 Ry     beta= 0.70
     Davidson diagonalization with overlap
     ethr =  1.86E-10,  avg # of iterations =  2.7

     negative rho (up, down):  4.861E-04 0.000E+00

     total cpu time spent up to now is     1393.8 secs

     total energy              =    -176.31599435 Ry
     estimated scf accuracy    <          9.3E-09 Ry

     iteration #  7     ecut=    60.00 Ry     beta= 0.70
     Davidson diagonalization with overlap
     ethr =  2.90E-11,  avg # of iterations =  2.4

     negative rho (up, down):  4.861E-04 0.000E+00

     total cpu time spent up to now is     1399.4 secs

     total energy              =    -176.31599435 Ry
     estimated scf accuracy    <          7.4E-10 Ry

     iteration #  8     ecut=    60.00 Ry     beta= 0.70
     Davidson diagonalization with overlap
     ethr =  2.32E-12,  avg # of iterations =  3.0

     negative rho (up, down):  4.861E-04 0.000E+00

     total cpu time spent up to now is     1405.5 secs

     total energy              =    -176.31599435 Ry
     estimated scf accuracy    <          2.1E-10 Ry

     iteration #  9     ecut=    60.00 Ry     beta= 0.70
     Davidson diagonalization with overlap
     ethr =  6.51E-13,  avg # of iterations =  2.5

     negative rho (up, down):  4.861E-04 0.000E+00

     total cpu time spent up to now is     1411.2 secs

     End of self-consistent calculation

          k = 0.0000 0.0000 0.0000 ( 18047 PWs)   bands (ev):

   -24.6641 -24.2855 -23.3900 -23.0621 -12.0382 -11.9986 -11.9329 -11.8240
   -10.0952  -8.9630  -7.5600  -7.0833  -6.5429  -6.3911  -6.3454  -6.1792

          k =-0.0153 0.2863 0.0000 ( 18132 PWs)   bands (ev):

   -24.5243 -24.1591 -23.5607 -23.2318 -12.2632 -12.1844 -11.6456 -11.4841
    -9.8969  -8.9147  -7.7486  -7.3921  -6.5870  -6.5144  -6.2784  -6.1014

          k = 0.0307-0.5725 0.0000 ( 18166 PWs)   bands (ev):

   -24.2907 -24.0138 -23.7544 -23.4899 -12.3489 -12.2931 -11.4410 -11.2788
    -9.6069  -8.8544  -8.0009  -7.7746  -6.6625  -6.4986  -6.2103  -6.0420

          k = 0.2575-0.1328 0.0000 ( 18109 PWs)   bands (ev):

   -24.5268 -24.1615 -23.5549 -23.2296 -12.2824 -12.1336 -11.6435 -11.5605
    -9.8774  -8.8882  -7.8236  -7.4662  -6.5639  -6.4463  -6.2136  -6.0925

          k = 0.2421 0.1535 0.0000 ( 18132 PWs)   bands (ev):

   -24.5310 -24.1797 -23.5467 -23.2110 -12.0515 -12.0141 -11.9225 -11.7531
    -9.7821  -8.8046  -7.9290  -7.4405  -6.4340  -6.3727  -6.3065  -6.1802

          k = 0.2882-0.7053 0.0000 ( 18147 PWs)   bands (ev):

   -24.3032 -24.0494 -23.7362 -23.4524 -12.2747 -12.2254 -11.6025 -11.4312
    -9.4380  -8.6153  -8.3035  -7.8632  -6.5671  -6.4183  -6.1893  -6.0609

          k = 0.2728-0.4190 0.0000 ( 18128 PWs)   bands (ev):

   -24.2972 -24.0163 -23.7463 -23.4858 -12.3761 -12.2721 -11.4325 -11.3278
    -9.5606  -8.7701  -8.0972  -7.9056  -6.5983  -6.4861  -6.1404  -6.0222

          k =-0.5150 0.2656 0.0000 ( 18184 PWs)   bands (ev):

   -24.3027 -24.0191 -23.7388 -23.4822 -12.3802 -12.2283 -11.4357 -11.4058
    -9.5631  -8.7602  -8.1392  -7.9107  -6.5821  -6.4569  -6.1120  -5.9991

          k =-0.5303 0.5518 0.0000 ( 18128 PWs)   bands (ev):

   -24.3087 -24.0521 -23.7282 -23.4492 -12.2911 -12.1851 -11.5927 -11.5051
    -9.4057  -8.5644  -8.3608  -7.9597  -6.5229  -6.4011  -6.1415  -6.0407

          k =-0.4843-0.3070 0.0000 ( 18166 PWs)   bands (ev):

   -24.3129 -24.0837 -23.7171 -23.4203 -12.0906 -11.9995 -11.9464 -11.6562
    -9.2405  -8.7383  -8.1632  -8.0212  -6.3927  -6.3011  -6.2422  -6.1878

     highest occupied level (ev):    -5.9991

!    total energy              =    -176.31599435 Ry
     estimated scf accuracy    <          1.4E-11 Ry

     convergence has been achieved in   9 iterations

     negative rho (up, down):  4.861E-04 0.000E+00

     Forces acting on atoms (cartesian axes, Ry/au):

     atom    1 type  1   force =    -0.00174279   -0.00615031    0.00105431
     atom    2 type  1   force =     0.00246487   -0.00134601    0.00150138
     atom    3 type  1   force =     0.00744669   -0.01309757    0.00156317
     atom    4 type  1   force =     0.00025937    0.00174984   -0.00320980
     atom    5 type  1   force =    -0.01161852   -0.00154969    0.00261358
     atom    6 type  1   force =    -0.01439221    0.00791417   -0.00116553
     atom    7 type  1   force =    -0.00262731    0.01684799   -0.00510117
     atom    8 type  1   force =     0.00243431    0.00573297    0.00301082
     atom    9 type  2   force =     0.00109840    0.00575232   -0.00922364
     atom   10 type  2   force =     0.01317412    0.00400469    0.00632646
     atom   11 type  2   force =     0.00153010   -0.00369305    0.00050857
     atom   12 type  2   force =     0.00197297   -0.01616538    0.00212186

     Total force =     0.041351     Total SCF correction =     0.000005

     Entering Dynamics:    iteration =    17

     <vel(dt)|acc(dt)> =   0.88075836

ATOMIC_POSITIONS (angstrom)
H             4.3847832549        3.6594703130       11.2259277352
H             5.2760897377        4.2748323170       10.0710622376
H             3.3242125470        1.2720040019        8.1282796763
H             3.1717704173        2.9188369885        9.2588429856
H             4.0766375725        3.5327944254        8.1127858949
H             6.4295737020        4.1338212417        8.1229417610
H             2.9722995554        1.6907031414       11.2535128795
H             2.0492221094        3.0019220751       11.1892299681
O             5.2342743185        4.1682103078       11.0558195596
O             3.2334556784        3.0244264279        8.2783152585
O             5.5039911672        4.4839775426        8.2829695867
O             2.9790763905        2.6571079758       11.0599985349



     Writing config-only to output data dir ./output/f-BH.save/
     NEW-OLD atomic charge density approx. for the potential

     negative rho (up, down):  4.839E-04 0.000E+00

     total cpu time spent up to now is     1423.9 secs

     per-process dynamical memory:   210.2 Mb

     Self-consistent Calculation

     iteration #  1     ecut=    60.00 Ry     beta= 0.70
     Davidson diagonalization with overlap
     ethr =  1.00E-06,  avg # of iterations =  6.8

     negative rho (up, down):  4.889E-04 0.000E+00

     total cpu time spent up to now is     1435.5 secs

     total energy              =    -176.31663177 Ry
     estimated scf accuracy    <       0.00227528 Ry

     iteration #  2     ecut=    60.00 Ry     beta= 0.70
     Davidson diagonalization with overlap
     ethr =  7.11E-06,  avg # of iterations =  2.0

     negative rho (up, down):  4.894E-04 0.000E+00

     total cpu time spent up to now is     1441.1 secs

     total energy              =    -176.31704031 Ry
     estimated scf accuracy    <       0.00030519 Ry

     iteration #  3     ecut=    60.00 Ry     beta= 0.70
     Davidson diagonalization with overlap
     ethr =  9.54E-07,  avg # of iterations =  2.0

     negative rho (up, down):  4.899E-04 0.000E+00

     total cpu time spent up to now is     1446.8 secs

     total energy              =    -176.31711011 Ry
     estimated scf accuracy    <       0.00002647 Ry

     iteration #  4     ecut=    60.00 Ry     beta= 0.70
     Davidson diagonalization with overlap
     ethr =  8.27E-08,  avg # of iterations =  2.0

     negative rho (up, down):  4.902E-04 0.000E+00

     total cpu time spent up to now is     1451.8 secs

     total energy              =    -176.31711313 Ry
     estimated scf accuracy    <       0.00000198 Ry

     iteration #  5     ecut=    60.00 Ry     beta= 0.70
     Davidson diagonalization with overlap
     ethr =  6.20E-09,  avg # of iterations =  2.0

     negative rho (up, down):  4.902E-04 0.000E+00

     total cpu time spent up to now is     1457.5 secs

     total energy              =    -176.31711364 Ry
     estimated scf accuracy    <       0.00000030 Ry

     iteration #  6     ecut=    60.00 Ry     beta= 0.70
     Davidson diagonalization with overlap
     ethr =  9.42E-10,  avg # of iterations =  2.0

     negative rho (up, down):  4.902E-04 0.000E+00

     total cpu time spent up to now is     1462.8 secs

     total energy              =    -176.31711366 Ry
     estimated scf accuracy    <       0.00000005 Ry

     iteration #  7     ecut=    60.00 Ry     beta= 0.70
     Davidson diagonalization with overlap
     ethr =  1.51E-10,  avg # of iterations =  3.0

     negative rho (up, down):  4.903E-04 0.000E+00

     total cpu time spent up to now is     1468.9 secs

     total energy              =    -176.31711367 Ry
     estimated scf accuracy    <       0.00000001 Ry

     iteration #  8     ecut=    60.00 Ry     beta= 0.70
     Davidson diagonalization with overlap
     ethr =  4.33E-11,  avg # of iterations =  2.3

     negative rho (up, down):  4.903E-04 0.000E+00

     total cpu time spent up to now is     1474.3 secs

     total energy              =    -176.31711368 Ry
     estimated scf accuracy    <          9.2E-10 Ry

     iteration #  9     ecut=    60.00 Ry     beta= 0.70
     Davidson diagonalization with overlap
     ethr =  2.87E-12,  avg # of iterations =  3.0

     negative rho (up, down):  4.903E-04 0.000E+00

     total cpu time spent up to now is     1480.4 secs

     total energy              =    -176.31711368 Ry
     estimated scf accuracy    <          1.2E-10 Ry

     iteration # 10     ecut=    60.00 Ry     beta= 0.70
     Davidson diagonalization with overlap
     ethr =  3.75E-13,  avg # of iterations =  2.3

     negative rho (up, down):  4.903E-04 0.000E+00

     total cpu time spent up to now is     1485.9 secs

     End of self-consistent calculation

          k = 0.0000 0.0000 0.0000 ( 18047 PWs)   bands (ev):

   -24.7638 -24.3946 -23.5061 -23.2120 -12.1949 -12.0966 -12.0395 -11.9173
   -10.1117  -9.0412  -7.5641  -7.1425  -6.5911  -6.4717  -6.3827  -6.2615

          k =-0.0153 0.2863 0.0000 ( 18132 PWs)   bands (ev):

   -24.6256 -24.2648 -23.6789 -23.3791 -12.3913 -12.2424 -11.7892 -11.6199
    -9.9288  -8.9957  -7.7531  -7.4522  -6.6305  -6.5498  -6.3277  -6.1852

          k = 0.0307-0.5725 0.0000 ( 18166 PWs)   bands (ev):

   -24.3977 -24.0865 -23.8980 -23.6369 -12.4799 -12.3310 -11.5990 -11.4269
    -9.6690  -8.9400  -7.9931  -7.8195  -6.6955  -6.5270  -6.2544  -6.1287

          k = 0.2575-0.1328 0.0000 ( 18109 PWs)   bands (ev):

   -24.6260 -24.2675 -23.6748 -23.3773 -12.4078 -12.2433 -11.7698 -11.6678
    -9.8948  -8.9705  -7.8100  -7.5000  -6.6026  -6.5104  -6.2874  -6.1890

          k = 0.2421 0.1535 0.0000 ( 18132 PWs)   bands (ev):

   -24.6291 -24.2816 -23.6684 -23.3640 -12.1814 -12.1354 -12.0130 -11.8666
    -9.7981  -8.8665  -7.9426  -7.5085  -6.4824  -6.4346  -6.3626  -6.2576

          k = 0.2882-0.7053 0.0000 ( 18147 PWs)   bands (ev):

   -24.4030 -24.1284 -23.8725 -23.6099 -12.4051 -12.2790 -11.7457 -11.5699
    -9.4811  -8.6868  -8.2985  -7.9247  -6.6032  -6.4616  -6.2424  -6.1460

          k = 0.2728-0.4190 0.0000 ( 18128 PWs)   bands (ev):

   -24.3988 -24.0977 -23.8849 -23.6349 -12.4993 -12.3494 -11.5784 -11.4600
    -9.6067  -8.8643  -8.0729  -7.9285  -6.6293  -6.5318  -6.2028  -6.1234

          k =-0.5150 0.2656 0.0000 ( 18184 PWs)   bands (ev):

   -24.3999 -24.1041 -23.8780 -23.6317 -12.5040 -12.3377 -11.5794 -11.5112
    -9.5905  -8.8602  -8.1043  -7.9120  -6.6190  -6.5098  -6.2016  -6.1067

          k =-0.5303 0.5518 0.0000 ( 18128 PWs)   bands (ev):

   -24.4040 -24.1350 -23.8648 -23.6073 -12.4159 -12.2856 -11.7270 -11.6146
    -9.4317  -8.6362  -8.3565  -7.9930  -6.5594  -6.4570  -6.2205  -6.1341

          k =-0.4843-0.3070 0.0000 ( 18166 PWs)   bands (ev):

   -24.4062 -24.1646 -23.8519 -23.5860 -12.1984 -12.1396 -12.0327 -11.7782
    -9.2713  -8.6935  -8.2415  -8.1146  -6.4362  -6.3579  -6.3297  -6.2433

     highest occupied level (ev):    -6.1067

!    total energy              =    -176.31711368 Ry
     estimated scf accuracy    <          2.9E-12 Ry

     convergence has been achieved in  10 iterations

     negative rho (up, down):  4.903E-04 0.000E+00

     Forces acting on atoms (cartesian axes, Ry/au):

     atom    1 type  1   force =     0.00868319    0.00081222   -0.00186738
     atom    2 type  1   force =     0.00109996   -0.00105028   -0.01156422
     atom    3 type  1   force =     0.00509918   -0.00078606   -0.00539289
     atom    4 type  1   force =     0.00268880   -0.00025252    0.01588163
     atom    5 type  1   force =     0.00163438    0.00224282    0.00153591
     atom    6 type  1   force =    -0.00549731    0.00255527   -0.00229517
     atom    7 type  1   force =     0.00148470   -0.01668168    0.00350592
     atom    8 type  1   force =     0.00594746    0.00344490    0.00439677
     atom    9 type  2   force =    -0.00920154   -0.00682134    0.00829290
     atom   10 type  2   force =    -0.00292452   -0.00333070   -0.01033755
     atom   11 type  2   force =    -0.00299631   -0.00411754    0.00487657
     atom   12 type  2   force =    -0.00601798    0.02398491   -0.00703247

     Total force =     0.044490     Total SCF correction =     0.000002

     Entering Dynamics:    iteration =    18

     <vel(dt)|acc(dt)> =  -0.72592579

ATOMIC_POSITIONS (angstrom)
H             4.3851724730        3.6603887355       11.2269606513
H             5.2759525331        4.2746418186       10.0699429206
H             3.3262712623        1.2728617397        8.1233944622
H             3.1726516270        2.9181249262        9.2626736023
H             4.0753451899        3.5294288626        8.1115198737
H             6.4293770191        4.1369357549        8.1227796513
H             2.9739454634        1.6898916626       11.2549784141
H             2.0484729366        3.0008015081       11.1908009601
O             5.2331359416        4.1662346366       11.0569416370
O             3.2328140160        3.0235169598        8.2774375922
O             5.5043540116        4.4861276717        8.2856417815
O             2.9778939772        2.6591524819       11.0566145314



     Writing config-only to output data dir ./output/f-BH.save/
     NEW-OLD atomic charge density approx. for the potential

     negative rho (up, down):  4.895E-04 0.000E+00

     total cpu time spent up to now is     1498.6 secs

     per-process dynamical memory:   210.2 Mb

     Self-consistent Calculation

     iteration #  1     ecut=    60.00 Ry     beta= 0.70
     Davidson diagonalization with overlap
     ethr =  1.00E-06,  avg # of iterations =  3.1

     Threshold (ethr) on eigenvalues was too large:
     Diagonalizing with lowered threshold

     Davidson diagonalization with overlap
     ethr =  9.47E-08,  avg # of iterations =  2.0

     negative rho (up, down):  4.900E-04 0.000E+00

     total cpu time spent up to now is     1509.7 secs

     total energy              =    -176.31751611 Ry
     estimated scf accuracy    <       0.00003343 Ry

     iteration #  2     ecut=    60.00 Ry     beta= 0.70
     Davidson diagonalization with overlap
     ethr =  1.04E-07,  avg # of iterations =  2.0

     negative rho (up, down):  4.902E-04 0.000E+00

     total cpu time spent up to now is     1515.3 secs

     total energy              =    -176.31752136 Ry
     estimated scf accuracy    <       0.00000395 Ry

     iteration #  3     ecut=    60.00 Ry     beta= 0.70
     Davidson diagonalization with overlap
     ethr =  1.24E-08,  avg # of iterations =  2.0

     negative rho (up, down):  4.902E-04 0.000E+00

     total cpu time spent up to now is     1521.1 secs

     total energy              =    -176.31752234 Ry
     estimated scf accuracy    <       0.00000048 Ry

     iteration #  4     ecut=    60.00 Ry     beta= 0.70
     Davidson diagonalization with overlap
     ethr =  1.51E-09,  avg # of iterations =  2.0

     negative rho (up, down):  4.902E-04 0.000E+00

     total cpu time spent up to now is     1526.4 secs

     total energy              =    -176.31752240 Ry
     estimated scf accuracy    <       0.00000003 Ry

     iteration #  5     ecut=    60.00 Ry     beta= 0.70
     Davidson diagonalization with overlap
     ethr =  7.83E-11,  avg # of iterations =  3.0

     negative rho (up, down):  4.902E-04 0.000E+00

     total cpu time spent up to now is     1532.8 secs

     total energy              =    -176.31752241 Ry
     estimated scf accuracy    <       0.00000001 Ry

     iteration #  6     ecut=    60.00 Ry     beta= 0.70
     Davidson diagonalization with overlap
     ethr =  3.23E-11,  avg # of iterations =  2.0

     negative rho (up, down):  4.902E-04 0.000E+00

     total cpu time spent up to now is     1538.1 secs

     total energy              =    -176.31752241 Ry
     estimated scf accuracy    <          8.3E-10 Ry

     iteration #  7     ecut=    60.00 Ry     beta= 0.70
     Davidson diagonalization with overlap
     ethr =  2.59E-12,  avg # of iterations =  3.3

     negative rho (up, down):  4.902E-04 0.000E+00

     total cpu time spent up to now is     1544.9 secs

     total energy              =    -176.31752241 Ry
     estimated scf accuracy    <          4.4E-10 Ry

     iteration #  8     ecut=    60.00 Ry     beta= 0.70
     Davidson diagonalization with overlap
     ethr =  1.38E-12,  avg # of iterations =  2.0

     negative rho (up, down):  4.902E-04 0.000E+00

     total cpu time spent up to now is     1550.3 secs

     End of self-consistent calculation

          k = 0.0000 0.0000 0.0000 ( 18047 PWs)   bands (ev):

   -24.7479 -24.3788 -23.4937 -23.1987 -12.1664 -12.0758 -12.0347 -11.9024
   -10.1102  -9.0222  -7.5690  -7.1353  -6.5757  -6.4605  -6.3778  -6.2545

          k =-0.0153 0.2863 0.0000 ( 18132 PWs)   bands (ev):

   -24.6092 -24.2487 -23.6670 -23.3658 -12.3665 -12.2412 -11.7663 -11.5993
    -9.9261  -8.9778  -7.7558  -7.4425  -6.6230  -6.5432  -6.3173  -6.1771

          k = 0.0307-0.5725 0.0000 ( 18166 PWs)   bands (ev):

   -24.3792 -24.0710 -23.8868 -23.6244 -12.4544 -12.3342 -11.5740 -11.4042
    -9.6640  -8.9246  -7.9929  -7.8092  -6.6923  -6.5218  -6.2436  -6.1196

          k = 0.2575-0.1328 0.0000 ( 18109 PWs)   bands (ev):

   -24.6098 -24.2509 -23.6630 -23.3645 -12.3883 -12.2302 -11.7454 -11.6539
    -9.8941  -8.9533  -7.8123  -7.4912  -6.5950  -6.5036  -6.2754  -6.1805

          k = 0.2421 0.1535 0.0000 ( 18132 PWs)   bands (ev):

   -24.6129 -24.2651 -23.6567 -23.3510 -12.1568 -12.1150 -12.0007 -11.8540
    -9.7966  -8.8491  -7.9473  -7.5010  -6.4669  -6.4268  -6.3530  -6.2520

          k = 0.2882-0.7053 0.0000 ( 18147 PWs)   bands (ev):

   -24.3852 -24.1109 -23.8627 -23.5974 -12.3804 -12.2760 -11.7227 -11.5500
    -9.4775  -8.6707  -8.3015  -7.9153  -6.5985  -6.4546  -6.2296  -6.1374

          k = 0.2728-0.4190 0.0000 ( 18128 PWs)   bands (ev):

   -24.3808 -24.0799 -23.8750 -23.6229 -12.4781 -12.3438 -11.5532 -11.4406
    -9.6042  -8.8499  -8.0719  -7.9187  -6.6261  -6.5268  -6.1897  -6.1141

          k =-0.5150 0.2656 0.0000 ( 18184 PWs)   bands (ev):

   -24.3824 -24.0849 -23.8684 -23.6206 -12.4858 -12.3250 -11.5488 -11.4998
    -9.5908  -8.8464  -8.1032  -7.9023  -6.6150  -6.5055  -6.1868  -6.0970

          k =-0.5303 0.5518 0.0000 ( 18128 PWs)   bands (ev):

   -24.3866 -24.1163 -23.8551 -23.5956 -12.3960 -12.2723 -11.7015 -11.6013
    -9.4309  -8.6211  -8.3587  -7.9836  -6.5540  -6.4508  -6.2054  -6.1255

          k =-0.4843-0.3070 0.0000 ( 18166 PWs)   bands (ev):

   -24.3891 -24.1462 -23.8422 -23.5739 -12.1780 -12.1144 -12.0212 -11.7642
    -9.2672  -8.6909  -8.2338  -8.1086  -6.4300  -6.3378  -6.3215  -6.2390

     highest occupied level (ev):    -6.0970

!    total energy              =    -176.31752241 Ry
     estimated scf accuracy    <          6.8E-12 Ry

     convergence has been achieved in   8 iterations

     negative rho (up, down):  4.902E-04 0.000E+00

     Forces acting on atoms (cartesian axes, Ry/au):

     atom    1 type  1   force =     0.00551809   -0.00090562   -0.00149808
     atom    2 type  1   force =     0.00084601   -0.00139107   -0.00817383
     atom    3 type  1   force =     0.00423089   -0.00024052   -0.00462796
     atom    4 type  1   force =     0.00272175    0.00022477    0.00922744
     atom    5 type  1   force =     0.00319363    0.00349107    0.00117084
     atom    6 type  1   force =    -0.00518539    0.00165719   -0.00202023
     atom    7 type  1   force =     0.00146276   -0.01110723    0.00195149
     atom    8 type  1   force =     0.00479222    0.00409603    0.00414333
     atom    9 type  2   force =    -0.00555369   -0.00373187    0.00445243
     atom   10 type  2   force =    -0.00462855   -0.00489391   -0.00350028
     atom   11 type  2   force =    -0.00251181   -0.00413602    0.00447655
     atom   12 type  2   force =    -0.00488593    0.01693718   -0.00560171

     Total force =     0.031408     Total SCF correction =     0.000005

     Entering Dynamics:    iteration =    19

     <vel(dt)|acc(dt)> =   0.91062902

ATOMIC_POSITIONS (angstrom)
H             4.3855302104        3.6598669235       11.2279850636
H             5.2760073787        4.2730245720       10.0671884904
H             3.3316633679        1.2731399797        8.1132039909
H             3.1756531384        2.9164993241        9.2694448193
H             4.0742257023        3.5255955955        8.1107395783
H             6.4259466643        4.1435158976        8.1220591757
H             2.9776958038        1.6895052668       11.2561482794
H             2.0481067703        3.0013680978       11.1960261950
O             5.2308579894        4.1637126617       11.0575224996
O             3.2308729911        3.0191502883        8.2786867613
O             5.5031374896        4.4886419604        8.2918394793
O             2.9756889447        2.6640861907       11.0488417451



     Writing config-only to output data dir ./output/f-BH.save/
     NEW-OLD atomic charge density approx. for the potential

     negative rho (up, down):  4.891E-04 0.000E+00

     total cpu time spent up to now is     1563.0 secs

     per-process dynamical memory:   210.2 Mb

     Self-consistent Calculation

     iteration #  1     ecut=    60.00 Ry     beta= 0.70
     Davidson diagonalization with overlap
     ethr =  1.00E-06,  avg # of iterations =  4.0

     negative rho (up, down):  4.903E-04 0.000E+00

     total cpu time spent up to now is     1571.0 secs

     total energy              =    -176.31804619 Ry
     estimated scf accuracy    <       0.00013024 Ry

     iteration #  2     ecut=    60.00 Ry     beta= 0.70
     Davidson diagonalization with overlap
     ethr =  4.07E-07,  avg # of iterations =  2.0

     negative rho (up, down):  4.909E-04 0.000E+00

     total cpu time spent up to now is     1576.4 secs

     total energy              =    -176.31806808 Ry
     estimated scf accuracy    <       0.00001395 Ry

     iteration #  3     ecut=    60.00 Ry     beta= 0.70
     Davidson diagonalization with overlap
     ethr =  4.36E-08,  avg # of iterations =  2.0

     negative rho (up, down):  4.909E-04 0.000E+00

     total cpu time spent up to now is     1582.0 secs

     total energy              =    -176.31807133 Ry
     estimated scf accuracy    <       0.00000185 Ry

     iteration #  4     ecut=    60.00 Ry     beta= 0.70
     Davidson diagonalization with overlap
     ethr =  5.77E-09,  avg # of iterations =  2.0

     negative rho (up, down):  4.909E-04 0.000E+00

     total cpu time spent up to now is     1587.5 secs

     total energy              =    -176.31807166 Ry
     estimated scf accuracy    <       0.00000011 Ry

     iteration #  5     ecut=    60.00 Ry     beta= 0.70
     Davidson diagonalization with overlap
     ethr =  3.35E-10,  avg # of iterations =  2.0

     negative rho (up, down):  4.909E-04 0.000E+00

     total cpu time spent up to now is     1593.2 secs

     total energy              =    -176.31807168 Ry
     estimated scf accuracy    <       0.00000001 Ry

     iteration #  6     ecut=    60.00 Ry     beta= 0.70
     Davidson diagonalization with overlap
     ethr =  4.15E-11,  avg # of iterations =  2.0

     negative rho (up, down):  4.909E-04 0.000E+00

     total cpu time spent up to now is     1598.7 secs

     total energy              =    -176.31807168 Ry
     estimated scf accuracy    <          8.5E-10 Ry

     iteration #  7     ecut=    60.00 Ry     beta= 0.70
     Davidson diagonalization with overlap
     ethr =  2.66E-12,  avg # of iterations =  2.8

     negative rho (up, down):  4.909E-04 0.000E+00

     total cpu time spent up to now is     1604.6 secs

     End of self-consistent calculation

          k = 0.0000 0.0000 0.0000 ( 18047 PWs)   bands (ev):

   -24.7147 -24.3406 -23.4697 -23.1694 -12.1003 -12.0398 -12.0031 -11.8635
   -10.1141  -8.9893  -7.5765  -7.1178  -6.5401  -6.4296  -6.3664  -6.2410

          k =-0.0153 0.2863 0.0000 ( 18132 PWs)   bands (ev):

   -24.5752 -24.2089 -23.6446 -23.3372 -12.3048 -12.2240 -11.7195 -11.5551
    -9.9257  -8.9454  -7.7586  -7.4186  -6.6057  -6.5239  -6.2935  -6.1593

          k = 0.0307-0.5725 0.0000 ( 18166 PWs)   bands (ev):

   -24.3410 -24.0255 -23.8698 -23.5998 -12.3857 -12.3281 -11.5267 -11.3598
    -9.6576  -8.8944  -7.9891  -7.7845  -6.6826  -6.5088  -6.2182  -6.0980

          k = 0.2575-0.1328 0.0000 ( 18109 PWs)   bands (ev):

   -24.5759 -24.2103 -23.6411 -23.3359 -12.3367 -12.1903 -11.6992 -11.6196
    -9.8999  -8.9240  -7.8093  -7.4639  -6.5793  -6.4868  -6.2528  -6.1588

          k = 0.2421 0.1535 0.0000 ( 18132 PWs)   bands (ev):

   -24.5791 -24.2243 -23.6352 -23.3222 -12.1013 -12.0738 -11.9663 -11.8122
    -9.7992  -8.8172  -7.9545  -7.4841  -6.4341  -6.4074  -6.3246  -6.2409

          k = 0.2882-0.7053 0.0000 ( 18147 PWs)   bands (ev):

   -24.3483 -24.0628 -23.8488 -23.5712 -12.3182 -12.2598 -11.6759 -11.5050
    -9.4745  -8.6391  -8.3039  -7.8953  -6.5867  -6.4373  -6.2010  -6.1150

          k = 0.2728-0.4190 0.0000 ( 18128 PWs)   bands (ev):

   -24.3435 -24.0309 -23.8614 -23.5978 -12.4222 -12.3168 -11.5071 -11.4007
    -9.6058  -8.8243  -8.0613  -7.8892  -6.6183  -6.5160  -6.1629  -6.0908

          k =-0.5150 0.2656 0.0000 ( 18184 PWs)   bands (ev):

   -24.3456 -24.0338 -23.8564 -23.5956 -12.4347 -12.2845 -11.4950 -11.4737
    -9.6009  -8.8249  -8.0872  -7.8673  -6.6075  -6.4964  -6.1603  -6.0718

          k =-0.5303 0.5518 0.0000 ( 18128 PWs)   bands (ev):

   -24.3503 -24.0665 -23.8424 -23.5696 -12.3443 -12.2352 -11.6533 -11.5661
    -9.4376  -8.5961  -8.3532  -7.9561  -6.5432  -6.4360  -6.1762  -6.1010

          k =-0.4843-0.3070 0.0000 ( 18166 PWs)   bands (ev):

   -24.3531 -24.0972 -23.8290 -23.5471 -12.1334 -12.0627 -11.9894 -11.7193
    -9.2656  -8.6786  -8.2208  -8.0971  -6.4173  -6.3048  -6.2877  -6.2260

     highest occupied level (ev):    -6.0718

!    total energy              =    -176.31807168 Ry
     estimated scf accuracy    <          9.8E-11 Ry

     convergence has been achieved in   7 iterations

     negative rho (up, down):  4.909E-04 0.000E+00

     Forces acting on atoms (cartesian axes, Ry/au):

     atom    1 type  1   force =     0.00156225   -0.00262295   -0.00128517
     atom    2 type  1   force =     0.00040080   -0.00173815   -0.00336891
     atom    3 type  1   force =     0.00151073    0.00041996   -0.00253588
     atom    4 type  1   force =     0.00189517    0.00034790    0.00256576
     atom    5 type  1   force =     0.00074224    0.00229561    0.00143097
     atom    6 type  1   force =    -0.00278261   -0.00194815   -0.00144498
     atom    7 type  1   force =     0.00106223   -0.00114274   -0.00096412
     atom    8 type  1   force =     0.00282414    0.00501490    0.00332984
     atom    9 type  2   force =    -0.00081434    0.00030382   -0.00022762
     atom   10 type  2   force =    -0.00133948   -0.00336344    0.00176936
     atom   11 type  2   force =    -0.00256611   -0.00195331    0.00293142
     atom   12 type  2   force =    -0.00249501    0.00438656   -0.00220068

     Total force =     0.013420     Total SCF correction =     0.000007

     Entering Dynamics:    iteration =    20

     <vel(dt)|acc(dt)> =   0.50068018

ATOMIC_POSITIONS (angstrom)
H             4.3884411977        3.6549807176       11.2260572988
H             5.2774875856        4.2706357224       10.0629873061
H             3.3367729527        1.2692188570        8.1107855857
H             3.1779738955        2.9175691641        9.2744751664
H             4.0718257077        3.5283662410        8.1132772735
H             6.4200198874        4.1435438606        8.1196131612
H             2.9758385995        1.6906802867       11.2545796241
H             2.0519330707        3.0086867497       11.2015432168
O             5.2286008302        4.1644516192       11.0552955806
O             3.2321897882        3.0158525681        8.2800188442
O             5.4983809906        4.4852932495        8.2954075070
O             2.9759219450        2.6688277223       11.0456455134



     Writing config-only to output data dir ./output/f-BH.save/
     NEW-OLD atomic charge density approx. for the potential

     negative rho (up, down):  4.923E-04 0.000E+00

     total cpu time spent up to now is     1617.3 secs

     per-process dynamical memory:   210.2 Mb

     Self-consistent Calculation

     iteration #  1     ecut=    60.00 Ry     beta= 0.70
     Davidson diagonalization with overlap
     ethr =  1.00E-06,  avg # of iterations =  4.0

     negative rho (up, down):  4.924E-04 0.000E+00

     total cpu time spent up to now is     1624.9 secs

     total energy              =    -176.31837292 Ry
     estimated scf accuracy    <       0.00007207 Ry

     iteration #  2     ecut=    60.00 Ry     beta= 0.70
     Davidson diagonalization with overlap
     ethr =  2.25E-07,  avg # of iterations =  2.6

     negative rho (up, down):  4.926E-04 0.000E+00

     total cpu time spent up to now is     1630.6 secs

     total energy              =    -176.31838614 Ry
     estimated scf accuracy    <       0.00002562 Ry

     iteration #  3     ecut=    60.00 Ry     beta= 0.70
     Davidson diagonalization with overlap
     ethr =  8.01E-08,  avg # of iterations =  2.6

     negative rho (up, down):  4.927E-04 0.000E+00

     total cpu time spent up to now is     1636.3 secs

     total energy              =    -176.31839243 Ry
     estimated scf accuracy    <       0.00000162 Ry

     iteration #  4     ecut=    60.00 Ry     beta= 0.70
     Davidson diagonalization with overlap
     ethr =  5.05E-09,  avg # of iterations =  2.0

     negative rho (up, down):  4.926E-04 0.000E+00

     total cpu time spent up to now is     1641.1 secs

     total energy              =    -176.31839249 Ry
     estimated scf accuracy    <       0.00000023 Ry

     iteration #  5     ecut=    60.00 Ry     beta= 0.70
     Davidson diagonalization with overlap
     ethr =  7.19E-10,  avg # of iterations =  3.3

     negative rho (up, down):  4.926E-04 0.000E+00

     total cpu time spent up to now is     1647.1 secs

     total energy              =    -176.31839257 Ry
     estimated scf accuracy    <       0.00000004 Ry

     iteration #  6     ecut=    60.00 Ry     beta= 0.70
     Davidson diagonalization with overlap
     ethr =  1.32E-10,  avg # of iterations =  2.0

     negative rho (up, down):  4.926E-04 0.000E+00

     total cpu time spent up to now is     1652.2 secs

     total energy              =    -176.31839258 Ry
     estimated scf accuracy    <          4.0E-09 Ry

     iteration #  7     ecut=    60.00 Ry     beta= 0.70
     Davidson diagonalization with overlap
     ethr =  1.26E-11,  avg # of iterations =  3.9

     negative rho (up, down):  4.926E-04 0.000E+00

     total cpu time spent up to now is     1658.8 secs

     total energy              =    -176.31839258 Ry
     estimated scf accuracy    <          2.6E-09 Ry

     iteration #  8     ecut=    60.00 Ry     beta= 0.70
     Davidson diagonalization with overlap
     ethr =  8.08E-12,  avg # of iterations =  2.1

     negative rho (up, down):  4.926E-04 0.000E+00

     total cpu time spent up to now is     1664.0 secs

     End of self-consistent calculation

          k = 0.0000 0.0000 0.0000 ( 18047 PWs)   bands (ev):

   -24.7008 -24.3211 -23.4630 -23.1573 -12.0736 -12.0153 -11.9787 -11.8387
   -10.1296  -8.9773  -7.5836  -7.1085  -6.5198  -6.4194  -6.3615  -6.2399

          k =-0.0153 0.2863 0.0000 ( 18132 PWs)   bands (ev):

   -24.5612 -24.1881 -23.6388 -23.3249 -12.2737 -12.2085 -11.6934 -11.5315
    -9.9383  -8.9332  -7.7648  -7.4088  -6.5985  -6.5112  -6.2823  -6.1545

          k = 0.0307-0.5725 0.0000 ( 18166 PWs)   bands (ev):

   -24.3267 -23.9929 -23.8751 -23.5882 -12.3448 -12.3241 -11.5015 -11.3380
    -9.6671  -8.8828  -7.9911  -7.7754  -6.6788  -6.5002  -6.2050  -6.0894

          k = 0.2575-0.1328 0.0000 ( 18109 PWs)   bands (ev):

   -24.5619 -24.1892 -23.6360 -23.3237 -12.3097 -12.1675 -11.6737 -11.5977
    -9.9168  -8.9156  -7.8039  -7.4433  -6.5737  -6.4823  -6.2489  -6.1530

          k = 0.2421 0.1535 0.0000 ( 18132 PWs)   bands (ev):

   -24.5638 -24.2015 -23.6323 -23.3117 -12.0724 -12.0513 -11.9415 -11.7856
    -9.8131  -8.8050  -7.9633  -7.4780  -6.4245  -6.3967  -6.3060  -6.2419

          k = 0.2882-0.7053 0.0000 ( 18147 PWs)   bands (ev):

   -24.3313 -24.0293 -23.8560 -23.5623 -12.2814 -12.2495 -11.6490 -11.4800
    -9.4856  -8.6277  -8.3078  -7.8903  -6.5829  -6.4290  -6.1869  -6.1054

          k = 0.2728-0.4190 0.0000 ( 18128 PWs)   bands (ev):

   -24.3291 -23.9973 -23.8683 -23.5858 -12.3937 -12.2987 -11.4818 -11.3797
    -9.6216  -8.8186  -8.0519  -7.8689  -6.6179  -6.5116  -6.1536  -6.0830

          k =-0.5150 0.2656 0.0000 ( 18184 PWs)   bands (ev):

   -24.3309 -23.9994 -23.8645 -23.5836 -12.4078 -12.2620 -11.4698 -11.4543
    -9.6238  -8.8246  -8.0675  -7.8344  -6.6093  -6.4950  -6.1570  -6.0650

          k =-0.5303 0.5518 0.0000 ( 18128 PWs)   bands (ev):

   -24.3331 -24.0324 -23.8507 -23.5605 -12.3157 -12.2140 -11.6262 -11.5431
    -9.4573  -8.5942  -8.3447  -7.9355  -6.5423  -6.4310  -6.1672  -6.0918

          k =-0.4843-0.3070 0.0000 ( 18166 PWs)   bands (ev):

   -24.3335 -24.0632 -23.8380 -23.5406 -12.1059 -12.0383 -11.9654 -11.6898
    -9.2783  -8.6672  -8.2304  -8.0938  -6.4177  -6.2972  -6.2626  -6.2192

     highest occupied level (ev):    -6.0650

!    total energy              =    -176.31839258 Ry
     estimated scf accuracy    <          4.4E-11 Ry

     convergence has been achieved in   8 iterations

     negative rho (up, down):  4.926E-04 0.000E+00

     Forces acting on atoms (cartesian axes, Ry/au):

     atom    1 type  1   force =    -0.00063485   -0.00299247   -0.00120645
     atom    2 type  1   force =    -0.00009569   -0.00189379   -0.00089591
     atom    3 type  1   force =    -0.00094424    0.00093221   -0.00135404
     atom    4 type  1   force =     0.00120478    0.00022860   -0.00181408
     atom    5 type  1   force =     0.00098478    0.00187388    0.00080036
     atom    6 type  1   force =    -0.00153977   -0.00487149   -0.00077951
     atom    7 type  1   force =     0.00094597    0.00380571   -0.00241785
     atom    8 type  1   force =     0.00109230    0.00543158    0.00280512
     atom    9 type  2   force =     0.00215507    0.00221624   -0.00213345
     atom   10 type  2   force =    -0.00164332   -0.00331856    0.00591940
     atom   11 type  2   force =    -0.00072005    0.00086934    0.00150008
     atom   12 type  2   force =    -0.00080498   -0.00228124   -0.00042367

     Total force =     0.013698     Total SCF correction =     0.000007

     Entering Dynamics:    iteration =    21

     <vel(dt)|acc(dt)> =   0.92308490

ATOMIC_POSITIONS (angstrom)
H             4.3942008816        3.6461927666       11.2218672957
H             5.2798904130        4.2667460767       10.0562053492
H             3.3424020159        1.2623951300        8.1117643953
H             3.1805022394        2.9213847289        9.2798021180
H             4.0686265993        3.5354842862        8.1170488483
H             6.4110803782        4.1369090745        8.1152364563
H             2.9708235155        1.6922303830       11.2512329276
H             2.0583496782        3.0246057261       11.2094307858
O             5.2271375527        4.1677333478       11.0507054330
O             3.2335397926        3.0115742856        8.2834827583
O             5.4919778795        4.4791067765        8.2985198995
O             2.9768555047        2.6737441763       11.0443898107



     Writing config-only to output data dir ./output/f-BH.save/
     NEW-OLD atomic charge density approx. for the potential

     negative rho (up, down):  4.942E-04 0.000E+00

     total cpu time spent up to now is     1676.8 secs

     per-process dynamical memory:   210.2 Mb

     Self-consistent Calculation

     iteration #  1     ecut=    60.00 Ry     beta= 0.70
     Davidson diagonalization with overlap
     ethr =  1.00E-06,  avg # of iterations =  4.0

     negative rho (up, down):  4.940E-04 0.000E+00

     total cpu time spent up to now is     1685.3 secs

     total energy              =    -176.31870846 Ry
     estimated scf accuracy    <       0.00013304 Ry

     iteration #  2     ecut=    60.00 Ry     beta= 0.70
     Davidson diagonalization with overlap
     ethr =  4.16E-07,  avg # of iterations =  2.0

     negative rho (up, down):  4.942E-04 0.000E+00

     total cpu time spent up to now is     1690.7 secs

     total energy              =    -176.31872880 Ry
     estimated scf accuracy    <       0.00002968 Ry

     iteration #  3     ecut=    60.00 Ry     beta= 0.70
     Davidson diagonalization with overlap
     ethr =  9.28E-08,  avg # of iterations =  2.1

     negative rho (up, down):  4.942E-04 0.000E+00

     total cpu time spent up to now is     1696.2 secs

     total energy              =    -176.31873629 Ry
     estimated scf accuracy    <       0.00000405 Ry

     iteration #  4     ecut=    60.00 Ry     beta= 0.70
     Davidson diagonalization with overlap
     ethr =  1.26E-08,  avg # of iterations =  2.1

     negative rho (up, down):  4.942E-04 0.000E+00

     total cpu time spent up to now is     1701.2 secs

     total energy              =    -176.31873668 Ry
     estimated scf accuracy    <       0.00000023 Ry

     iteration #  5     ecut=    60.00 Ry     beta= 0.70
     Davidson diagonalization with overlap
     ethr =  7.20E-10,  avg # of iterations =  3.1

     negative rho (up, down):  4.942E-04 0.000E+00

     total cpu time spent up to now is     1707.5 secs

     total energy              =    -176.31873677 Ry
     estimated scf accuracy    <       0.00000008 Ry

     iteration #  6     ecut=    60.00 Ry     beta= 0.70
     Davidson diagonalization with overlap
     ethr =  2.64E-10,  avg # of iterations =  2.3

     negative rho (up, down):  4.942E-04 0.000E+00

     total cpu time spent up to now is     1712.9 secs

     total energy              =    -176.31873678 Ry
     estimated scf accuracy    <          2.9E-09 Ry

     iteration #  7     ecut=    60.00 Ry     beta= 0.70
     Davidson diagonalization with overlap
     ethr =  9.19E-12,  avg # of iterations =  4.6

     negative rho (up, down):  4.942E-04 0.000E+00

     total cpu time spent up to now is     1720.4 secs

     total energy              =    -176.31873678 Ry
     estimated scf accuracy    <          5.6E-09 Ry

     iteration #  8     ecut=    60.00 Ry     beta= 0.70
     Davidson diagonalization with overlap
     ethr =  9.19E-12,  avg # of iterations =  3.0

     negative rho (up, down):  4.942E-04 0.000E+00

     total cpu time spent up to now is     1726.8 secs

     total energy              =    -176.31873678 Ry
     estimated scf accuracy    <          2.0E-10 Ry

     iteration #  9     ecut=    60.00 Ry     beta= 0.70
     Davidson diagonalization with overlap
     ethr =  6.26E-13,  avg # of iterations =  2.0

     negative rho (up, down):  4.942E-04 0.000E+00

     total cpu time spent up to now is     1732.0 secs

     End of self-consistent calculation

          k = 0.0000 0.0000 0.0000 ( 18047 PWs)   bands (ev):

   -24.6881 -24.2998 -23.4550 -23.1396 -12.0513 -11.9947 -11.9478 -11.8193
   -10.1502  -8.9718  -7.5834  -7.0917  -6.4988  -6.4213  -6.3501  -6.2369

          k =-0.0153 0.2863 0.0000 ( 18132 PWs)   bands (ev):

   -24.5490 -24.1660 -23.6310 -23.3070 -12.2474 -12.1816 -11.6772 -11.5144
    -9.9553  -8.9251  -7.7669  -7.3977  -6.5931  -6.4951  -6.2699  -6.1459

          k = 0.0307-0.5725 0.0000 ( 18166 PWs)   bands (ev):

   -24.3163 -23.9560 -23.8808 -23.5693 -12.3086 -12.3063 -11.4888 -11.3250
    -9.6813  -8.8696  -7.9931  -7.7690  -6.6741  -6.4881  -6.1895  -6.0750

          k = 0.2575-0.1328 0.0000 ( 18109 PWs)   bands (ev):

   -24.5491 -24.1669 -23.6292 -23.3056 -12.2836 -12.1458 -11.6538 -11.5786
    -9.9363  -8.9120  -7.7907  -7.4160  -6.5680  -6.4797  -6.2494  -6.1451

          k = 0.2421 0.1535 0.0000 ( 18132 PWs)   bands (ev):

   -24.5496 -24.1769 -23.6283 -23.2956 -12.0539 -12.0283 -11.9174 -11.7560
    -9.8310  -8.7991  -7.9645  -7.4660  -6.4267  -6.3798  -6.2871  -6.2409

          k = 0.2882-0.7053 0.0000 ( 18147 PWs)   bands (ev):

   -24.3168 -23.9916 -23.8646 -23.5467 -12.2500 -12.2309 -11.6309 -11.4591
    -9.5008  -8.6178  -8.3069  -7.8855  -6.5799  -6.4202  -6.1725  -6.0915

          k = 0.2728-0.4190 0.0000 ( 18128 PWs)   bands (ev):

   -24.3174 -23.9603 -23.8759 -23.5666 -12.3660 -12.2763 -11.4668 -11.3648
    -9.6399  -8.8124  -8.0397  -7.8469  -6.6182  -6.5046  -6.1472  -6.0704

          k =-0.5150 0.2656 0.0000 ( 18184 PWs)   bands (ev):

   -24.3180 -23.9617 -23.8744 -23.5640 -12.3812 -12.2410 -11.4614 -11.4298
    -9.6468  -8.8254  -8.0418  -7.7954  -6.6121  -6.4928  -6.1604  -6.0564

          k =-0.5303 0.5518 0.0000 ( 18128 PWs)   bands (ev):

   -24.3174 -23.9944 -23.8611 -23.5445 -12.2890 -12.1954 -11.6072 -11.5181
    -9.4788  -8.5961  -8.3288  -7.9098  -6.5433  -6.4257  -6.1622  -6.0807

          k =-0.4843-0.3070 0.0000 ( 18166 PWs)   bands (ev):

   -24.3151 -24.0249 -23.8493 -23.5278 -12.0909 -12.0112 -11.9450 -11.6550
    -9.2953  -8.6557  -8.2387  -8.0836  -6.4229  -6.2899  -6.2424  -6.2059

     highest occupied level (ev):    -6.0564

!    total energy              =    -176.31873678 Ry
     estimated scf accuracy    <          5.0E-11 Ry

     convergence has been achieved in   9 iterations

     negative rho (up, down):  4.942E-04 0.000E+00

     Forces acting on atoms (cartesian axes, Ry/au):

     atom    1 type  1   force =    -0.00114617   -0.00203476   -0.00119006
     atom    2 type  1   force =    -0.00043047   -0.00175516    0.00137649
     atom    3 type  1   force =    -0.00314134    0.00240884   -0.00059609
     atom    4 type  1   force =     0.00021299   -0.00050797   -0.00313201
     atom    5 type  1   force =    -0.00111648   -0.00045127    0.00051698
     atom    6 type  1   force =    -0.00039873   -0.00724667    0.00004451
     atom    7 type  1   force =     0.00039676    0.00744509   -0.00324329
     atom    8 type  1   force =     0.00090678    0.00416538    0.00202526
     atom    9 type  2   force =     0.00316436    0.00232277   -0.00336497
     atom   10 type  2   force =     0.00049876   -0.00115934    0.00645100
     atom   11 type  2   force =     0.00120557    0.00259254    0.00004444
     atom   12 type  2   force =    -0.00015202   -0.00577944    0.00106774

     Total force =     0.017135     Total SCF correction =     0.000007

     Entering Dynamics:    iteration =    22

     <vel(dt)|acc(dt)> =   0.97372096

ATOMIC_POSITIONS (angstrom)
H             4.4026197604        3.6327800256       11.2135859050
H             5.2831820999        4.2604659701       10.0472261908
H             3.3461955538        1.2543984139        8.1161236163
H             3.1835046509        2.9255689828        9.2857028703
H             4.0641473904        3.5477100364        8.1249346432
H             6.3981337809        4.1203864207        8.1096623677
H             2.9624241839        1.6975726422       11.2435160489
H             2.0701823989        3.0490721203       11.2207786388
O             5.2255381945        4.1730746213       11.0430766923
O             3.2376782967        3.0062810357        8.2894838550
O             5.4828186864        4.4699237401        8.3007152470
O             2.9789614540        2.6808727491       11.0448800026



     Writing config-only to output data dir ./output/f-BH.save/
     NEW-OLD atomic charge density approx. for the potential

     negative rho (up, down):  4.959E-04 0.000E+00

     total cpu time spent up to now is     1744.8 secs

     per-process dynamical memory:   210.2 Mb

     Self-consistent Calculation

     iteration #  1     ecut=    60.00 Ry     beta= 0.70
     Davidson diagonalization with overlap
     ethr =  1.00E-06,  avg # of iterations =  5.0

     negative rho (up, down):  4.954E-04 0.000E+00

     total cpu time spent up to now is     1753.9 secs

     total energy              =    -176.31905007 Ry
     estimated scf accuracy    <       0.00030076 Ry

     iteration #  2     ecut=    60.00 Ry     beta= 0.70
     Davidson diagonalization with overlap
     ethr =  9.40E-07,  avg # of iterations =  2.3

     negative rho (up, down):  4.954E-04 0.000E+00

     total cpu time spent up to now is     1759.4 secs

     total energy              =    -176.31909311 Ry
     estimated scf accuracy    <       0.00006411 Ry

     iteration #  3     ecut=    60.00 Ry     beta= 0.70
     Davidson diagonalization with overlap
     ethr =  2.00E-07,  avg # of iterations =  2.4

     negative rho (up, down):  4.953E-04 0.000E+00

     total cpu time spent up to now is     1765.1 secs

     total energy              =    -176.31910972 Ry
     estimated scf accuracy    <       0.00001077 Ry

     iteration #  4     ecut=    60.00 Ry     beta= 0.70
     Davidson diagonalization with overlap
     ethr =  3.36E-08,  avg # of iterations =  2.2

     negative rho (up, down):  4.953E-04 0.000E+00

     total cpu time spent up to now is     1770.1 secs

     total energy              =    -176.31911090 Ry
     estimated scf accuracy    <       0.00000046 Ry

     iteration #  5     ecut=    60.00 Ry     beta= 0.70
     Davidson diagonalization with overlap
     ethr =  1.44E-09,  avg # of iterations =  4.1

     negative rho (up, down):  4.954E-04 0.000E+00

     total cpu time spent up to now is     1776.7 secs

     total energy              =    -176.31911111 Ry
     estimated scf accuracy    <       0.00000033 Ry

     iteration #  6     ecut=    60.00 Ry     beta= 0.70
     Davidson diagonalization with overlap
     ethr =  1.02E-09,  avg # of iterations =  2.1

     negative rho (up, down):  4.954E-04 0.000E+00

     total cpu time spent up to now is     1782.0 secs

     total energy              =    -176.31911115 Ry
     estimated scf accuracy    <       0.00000002 Ry

     iteration #  7     ecut=    60.00 Ry     beta= 0.70
     Davidson diagonalization with overlap
     ethr =  6.22E-11,  avg # of iterations =  4.6

     negative rho (up, down):  4.954E-04 0.000E+00

     total cpu time spent up to now is     1789.3 secs

     total energy              =    -176.31911116 Ry
     estimated scf accuracy    <       0.00000003 Ry

     iteration #  8     ecut=    60.00 Ry     beta= 0.70
     Davidson diagonalization with overlap
     ethr =  6.22E-11,  avg # of iterations =  2.8

     negative rho (up, down):  4.954E-04 0.000E+00

     total cpu time spent up to now is     1795.0 secs

     End of self-consistent calculation

          k = 0.0000 0.0000 0.0000 ( 18047 PWs)   bands (ev):

   -24.6839 -24.2831 -23.4536 -23.1260 -12.0379 -11.9943 -11.9180 -11.8179
   -10.1773  -8.9723  -7.5761  -7.0697  -6.4821  -6.4348  -6.3365  -6.2377

          k =-0.0153 0.2863 0.0000 ( 18132 PWs)   bands (ev):

   -24.5458 -24.1493 -23.6287 -23.2928 -12.2324 -12.1612 -11.6774 -11.5138
    -9.9780  -8.9205  -7.7673  -7.3882  -6.5932  -6.4781  -6.2599  -6.1354

          k = 0.0307-0.5725 0.0000 ( 18166 PWs)   bands (ev):

   -24.3167 -23.9238 -23.8918 -23.5530 -12.2950 -12.2830 -11.4949 -11.3303
    -9.7010  -8.8550  -7.9991  -7.7674  -6.6712  -6.4759  -6.1757  -6.0551

          k = 0.2575-0.1328 0.0000 ( 18109 PWs)   bands (ev):

   -24.5454 -24.1498 -23.6277 -23.2915 -12.2670 -12.1405 -11.6477 -11.5718
    -9.9609  -8.9125  -7.7693  -7.3824  -6.5666  -6.4815  -6.2563  -6.1415

          k = 0.2421 0.1535 0.0000 ( 18132 PWs)   bands (ev):

   -24.5432 -24.1564 -23.6318 -23.2843 -12.0568 -12.0083 -11.9083 -11.7335
    -9.8545  -8.7992  -7.9584  -7.4502  -6.4430  -6.3608  -6.2702  -6.2442

          k = 0.2882-0.7053 0.0000 ( 18147 PWs)   bands (ev):

   -24.3103 -23.9555 -23.8824 -23.5362 -12.2292 -12.2221 -11.6286 -11.4514
    -9.5217  -8.6097  -8.3035  -7.8826  -6.5814  -6.4144  -6.1620  -6.0752

          k = 0.2728-0.4190 0.0000 ( 18128 PWs)   bands (ev):

   -24.3169 -23.9286 -23.8873 -23.5504 -12.3471 -12.2672 -11.4694 -11.3649
    -9.6638  -8.8056  -8.0264  -7.8231  -6.6225  -6.4979  -6.1461  -6.0569

          k =-0.5150 0.2656 0.0000 ( 18184 PWs)   bands (ev):

   -24.3163 -23.9294 -23.8874 -23.5482 -12.3640 -12.2375 -11.4717 -11.4155
    -9.6752  -8.8267  -8.0083  -7.7482  -6.6200  -6.4921  -6.1733  -6.0525

          k =-0.5303 0.5518 0.0000 ( 18128 PWs)   bands (ev):

   -24.3099 -23.9582 -23.8801 -23.5341 -12.2719 -12.1939 -11.6042 -11.5007
    -9.5062  -8.6023  -8.3048  -7.8785  -6.5509  -6.4227  -6.1641  -6.0733

          k =-0.4843-0.3070 0.0000 ( 18166 PWs)   bands (ev):

   -24.3014 -23.9877 -23.8720 -23.5225 -12.0965 -11.9854 -11.9432 -11.6250
    -9.3188  -8.6432  -8.2471  -8.0693  -6.4389  -6.2869  -6.2258  -6.1929

     highest occupied level (ev):    -6.0525

!    total energy              =    -176.31911116 Ry
     estimated scf accuracy    <          9.9E-11 Ry

     convergence has been achieved in   8 iterations

     negative rho (up, down):  4.954E-04 0.000E+00

     Forces acting on atoms (cartesian axes, Ry/au):

     atom    1 type  1   force =    -0.00036794    0.00027678   -0.00090423
     atom    2 type  1   force =    -0.00046576   -0.00112944    0.00220789
     atom    3 type  1   force =    -0.00402700    0.00197833   -0.00006324
     atom    4 type  1   force =    -0.00089402   -0.00137268   -0.00193450
     atom    5 type  1   force =    -0.00219179   -0.00291356   -0.00027218
     atom    6 type  1   force =    -0.00076102   -0.00742397    0.00101419
     atom    7 type  1   force =    -0.00030222    0.00753407   -0.00272382
     atom    8 type  1   force =    -0.00087012    0.00270138    0.00133087
     atom    9 type  2   force =     0.00264526    0.00087287   -0.00285093
     atom   10 type  2   force =     0.00082623    0.00068256    0.00475051
     atom   11 type  2   force =     0.00433963    0.00477715   -0.00184409
     atom   12 type  2   force =     0.00206876   -0.00598349    0.00128951

     Total force =     0.017451     Total SCF correction =     0.000015

     Entering Dynamics:    iteration =    23

     <vel(dt)|acc(dt)> =   0.95122122

ATOMIC_POSITIONS (angstrom)
H             4.4153557992        3.6188734246       11.2040027528
H             5.2867380791        4.2528068064       10.0367627422
H             3.3476931639        1.2487952009        8.1205727790
H             3.1850758580        2.9320132895        9.2941931389
H             4.0564349222        3.5564010572        8.1285311284
H             6.3848363302        4.0909731943        8.1025688133
H             2.9511319437        1.7055453868       11.2359699672
H             2.0828463971        3.0820199051       11.2347475765
O             5.2276615476        4.1788268397       11.0330729003
O             3.2382357159        3.0014729559        8.3002318306
O             5.4791144490        4.4643832573        8.3021939441
O             2.9802622448        2.6859954404       11.0468385045



     Writing config-only to output data dir ./output/f-BH.save/
     NEW-OLD atomic charge density approx. for the potential

     negative rho (up, down):  4.942E-04 0.000E+00

     total cpu time spent up to now is     1807.8 secs

     per-process dynamical memory:   210.2 Mb

     Self-consistent Calculation

     iteration #  1     ecut=    60.00 Ry     beta= 0.70
     Davidson diagonalization with overlap
     ethr =  1.00E-06,  avg # of iterations =  5.0

     negative rho (up, down):  4.946E-04 0.000E+00

     total cpu time spent up to now is     1817.0 secs

     total energy              =    -176.31936022 Ry
     estimated scf accuracy    <       0.00034426 Ry

     iteration #  2     ecut=    60.00 Ry     beta= 0.70
     Davidson diagonalization with overlap
     ethr =  1.08E-06,  avg # of iterations =  2.0

     negative rho (up, down):  4.944E-04 0.000E+00

     total cpu time spent up to now is     1822.4 secs

     total energy              =    -176.31941021 Ry
     estimated scf accuracy    <       0.00003488 Ry

     iteration #  3     ecut=    60.00 Ry     beta= 0.70
     Davidson diagonalization with overlap
     ethr =  1.09E-07,  avg # of iterations =  2.0

     negative rho (up, down):  4.943E-04 0.000E+00

     total cpu time spent up to now is     1827.9 secs

     total energy              =    -176.31941670 Ry
     estimated scf accuracy    <       0.00000655 Ry

     iteration #  4     ecut=    60.00 Ry     beta= 0.70
     Davidson diagonalization with overlap
     ethr =  2.05E-08,  avg # of iterations =  2.0

     negative rho (up, down):  4.943E-04 0.000E+00

     total cpu time spent up to now is     1833.4 secs

     total energy              =    -176.31941810 Ry
     estimated scf accuracy    <       0.00000042 Ry

     iteration #  5     ecut=    60.00 Ry     beta= 0.70
     Davidson diagonalization with overlap
     ethr =  1.32E-09,  avg # of iterations =  2.0

     negative rho (up, down):  4.944E-04 0.000E+00

     total cpu time spent up to now is     1838.8 secs

     total energy              =    -176.31941816 Ry
     estimated scf accuracy    <       0.00000003 Ry

     iteration #  6     ecut=    60.00 Ry     beta= 0.70
     Davidson diagonalization with overlap
     ethr =  8.13E-11,  avg # of iterations =  3.0

     negative rho (up, down):  4.944E-04 0.000E+00

     total cpu time spent up to now is     1844.9 secs

     total energy              =    -176.31941816 Ry
     estimated scf accuracy    <          4.2E-09 Ry

     iteration #  7     ecut=    60.00 Ry     beta= 0.70
     Davidson diagonalization with overlap
     ethr =  1.31E-11,  avg # of iterations =  2.0

     negative rho (up, down):  4.944E-04 0.000E+00

     total cpu time spent up to now is     1850.2 secs

     total energy              =    -176.31941817 Ry
     estimated scf accuracy    <          4.5E-10 Ry

     iteration #  8     ecut=    60.00 Ry     beta= 0.70
     Davidson diagonalization with overlap
     ethr =  1.41E-12,  avg # of iterations =  4.4

     negative rho (up, down):  4.944E-04 0.000E+00

     total cpu time spent up to now is     1857.0 secs

     total energy              =    -176.31941817 Ry
     estimated scf accuracy    <          3.6E-10 Ry

     iteration #  9     ecut=    60.00 Ry     beta= 0.70
     Davidson diagonalization with overlap
     ethr =  1.14E-12,  avg # of iterations =  2.9

     negative rho (up, down):  4.944E-04 0.000E+00

     total cpu time spent up to now is     1862.5 secs

     End of self-consistent calculation

          k = 0.0000 0.0000 0.0000 ( 18047 PWs)   bands (ev):

   -24.6726 -24.2571 -23.4444 -23.1025 -12.0463 -12.0128 -11.8901 -11.8293
   -10.1751  -8.9578  -7.5486  -7.0295  -6.4756  -6.4200  -6.3190  -6.2216

          k =-0.0153 0.2863 0.0000 ( 18132 PWs)   bands (ev):

   -24.5355 -24.1237 -23.6182 -23.2686 -12.2283 -12.1478 -11.6988 -11.5339
    -9.9714  -8.8968  -7.7499  -7.3632  -6.5882  -6.4533  -6.2371  -6.1046

          k = 0.0307-0.5725 0.0000 ( 18166 PWs)   bands (ev):

   -24.3096 -23.8971 -23.8803 -23.5273 -12.2948 -12.2580 -11.5282 -11.3602
    -9.6917  -8.8140  -7.9932  -7.7511  -6.6607  -6.4569  -6.1464  -6.0140

          k = 0.2575-0.1328 0.0000 ( 18109 PWs)   bands (ev):

   -24.5341 -24.1235 -23.6185 -23.2680 -12.2655 -12.1554 -11.6521 -11.5781
    -9.9470  -8.8904  -7.7395  -7.3418  -6.5573  -6.4755  -6.2464  -6.1213

          k = 0.2421 0.1535 0.0000 ( 18132 PWs)   bands (ev):

   -24.5309 -24.1294 -23.6241 -23.2614 -12.0862 -12.0019 -11.9166 -11.7165
    -9.8469  -8.7839  -7.9276  -7.4123  -6.4439  -6.3428  -6.2501  -6.2314

          k = 0.2882-0.7053 0.0000 ( 18147 PWs)   bands (ev):

   -24.2988 -23.9277 -23.8744 -23.5129 -12.2370 -12.2077 -11.6504 -11.4640
    -9.5110  -8.5766  -8.2841  -7.8595  -6.5743  -6.4013  -6.1427  -6.0426

          k = 0.2728-0.4190 0.0000 ( 18128 PWs)   bands (ev):

   -24.3075 -23.9013 -23.8772 -23.5263 -12.3402 -12.2689 -11.4935 -11.3844
    -9.6465  -8.7669  -8.0105  -7.7959  -6.6169  -6.4836  -6.1280  -6.0249

          k =-0.5150 0.2656 0.0000 ( 18184 PWs)   bands (ev):

   -24.3047 -23.9004 -23.8798 -23.5257 -12.3618 -12.2542 -11.4925 -11.4183
    -9.6498  -8.7925  -7.9816  -7.7094  -6.6158  -6.4844  -6.1663  -6.0315

          k =-0.5303 0.5518 0.0000 ( 18128 PWs)   bands (ev):

   -24.2961 -23.9304 -23.8732 -23.5124 -12.2732 -12.2108 -11.6204 -11.4941
    -9.4871  -8.5748  -8.2778  -7.8413  -6.5480  -6.4125  -6.1552  -6.0519

          k =-0.4843-0.3070 0.0000 ( 18166 PWs)   bands (ev):

   -24.2852 -23.9614 -23.8658 -23.5014 -12.1280 -11.9693 -11.9642 -11.6064
    -9.3059  -8.6350  -8.1992  -8.0409  -6.4386  -6.2737  -6.2120  -6.1733

     highest occupied level (ev):    -6.0140

!    total energy              =    -176.31941817 Ry
     estimated scf accuracy    <          1.3E-12 Ry

     convergence has been achieved in   9 iterations

     negative rho (up, down):  4.944E-04 0.000E+00

     Forces acting on atoms (cartesian axes, Ry/au):

     atom    1 type  1   force =     0.00133625    0.00299688   -0.00028089
     atom    2 type  1   force =     0.00031416    0.00023172    0.00123416
     atom    3 type  1   force =    -0.00149983    0.00219858   -0.00040976
     atom    4 type  1   force =    -0.00154618   -0.00231277    0.00273533
     atom    5 type  1   force =    -0.00347751   -0.00490693    0.00031255
     atom    6 type  1   force =    -0.00160076   -0.00262967    0.00194062
     atom    7 type  1   force =    -0.00173106    0.00215770   -0.00081411
     atom    8 type  1   force =     0.00107389   -0.00200317   -0.00034634
     atom    9 type  2   force =     0.00020118   -0.00220446   -0.00062570
     atom   10 type  2   force =     0.00164999    0.00241263   -0.00177807
     atom   11 type  2   force =     0.00374655    0.00085067   -0.00295165
     atom   12 type  2   force =     0.00153333    0.00320881    0.00098385

     Total force =     0.012337     Total SCF correction =     0.000004

     Entering Dynamics:    iteration =    24

     <vel(dt)|acc(dt)> =  -0.56902573

ATOMIC_POSITIONS (angstrom)
H             4.4143425708        3.6202528830       11.2040468814
H             5.2864179700        4.2529934431       10.0378360790
H             3.3461396504        1.2507345681        8.1196374150
H             3.1848212615        2.9301234097        9.2939535936
H             4.0567241717        3.5548387771        8.1288975265
H             6.3854856611        4.0908909353        8.1038157410
H             2.9518659997        1.7068229778       11.2354512354
H             2.0828164949        3.0794380747       11.2342235916
O             5.2277467113        4.1777879234       11.0335436575
O             3.2384209875        3.0016517538        8.3002768734
O             5.4800407704        4.4657492397        8.3014356566
O             2.9805642014        2.6868227723       11.0465678270



     Writing config-only to output data dir ./output/f-BH.save/
     NEW-OLD atomic charge density approx. for the potential

     negative rho (up, down):  4.947E-04 0.000E+00

     total cpu time spent up to now is     1875.3 secs

     per-process dynamical memory:   210.2 Mb

     Self-consistent Calculation

     iteration #  1     ecut=    60.00 Ry     beta= 0.70
     Davidson diagonalization with overlap
     ethr =  1.00E-06,  avg # of iterations =  2.0

     Threshold (ethr) on eigenvalues was too large:
     Diagonalizing with lowered threshold

     Davidson diagonalization with overlap
     ethr =  1.32E-08,  avg # of iterations =  3.0

     negative rho (up, down):  4.947E-04 0.000E+00

     total cpu time spent up to now is     1886.3 secs

     total energy              =    -176.31948763 Ry
     estimated scf accuracy    <       0.00000466 Ry

     iteration #  2     ecut=    60.00 Ry     beta= 0.70
     Davidson diagonalization with overlap
     ethr =  1.46E-08,  avg # of iterations =  2.0

     negative rho (up, down):  4.947E-04 0.000E+00

     total cpu time spent up to now is     1891.8 secs

     total energy              =    -176.31948835 Ry
     estimated scf accuracy    <       0.00000086 Ry

     iteration #  3     ecut=    60.00 Ry     beta= 0.70
     Davidson diagonalization with overlap
     ethr =  2.68E-09,  avg # of iterations =  2.0

     negative rho (up, down):  4.947E-04 0.000E+00

     total cpu time spent up to now is     1897.6 secs

     total energy              =    -176.31948855 Ry
     estimated scf accuracy    <       0.00000008 Ry

     iteration #  4     ecut=    60.00 Ry     beta= 0.70
     Davidson diagonalization with overlap
     ethr =  2.54E-10,  avg # of iterations =  2.0

     negative rho (up, down):  4.947E-04 0.000E+00

     total cpu time spent up to now is     1902.7 secs

     total energy              =    -176.31948855 Ry
     estimated scf accuracy    <          6.5E-09 Ry

     iteration #  5     ecut=    60.00 Ry     beta= 0.70
     Davidson diagonalization with overlap
     ethr =  2.02E-11,  avg # of iterations =  2.2

     negative rho (up, down):  4.947E-04 0.000E+00

     total cpu time spent up to now is     1908.5 secs

     total energy              =    -176.31948856 Ry
     estimated scf accuracy    <          6.6E-10 Ry

     iteration #  6     ecut=    60.00 Ry     beta= 0.70
     Davidson diagonalization with overlap
     ethr =  2.06E-12,  avg # of iterations =  2.9

     negative rho (up, down):  4.947E-04 0.000E+00

     total cpu time spent up to now is     1914.2 secs

     total energy              =    -176.31948856 Ry
     estimated scf accuracy    <          2.1E-10 Ry

     iteration #  7     ecut=    60.00 Ry     beta= 0.70
     Davidson diagonalization with overlap
     ethr =  6.62E-13,  avg # of iterations =  2.9

     negative rho (up, down):  4.947E-04 0.000E+00

     total cpu time spent up to now is     1920.0 secs

     End of self-consistent calculation

          k = 0.0000 0.0000 0.0000 ( 18047 PWs)   bands (ev):

   -24.6756 -24.2630 -23.4479 -23.1101 -12.0503 -12.0195 -11.8980 -11.8365
   -10.1725  -8.9583  -7.5487  -7.0322  -6.4768  -6.4196  -6.3228  -6.2264

          k =-0.0153 0.2863 0.0000 ( 18132 PWs)   bands (ev):

   -24.5383 -24.1297 -23.6220 -23.2759 -12.2356 -12.1556 -11.7035 -11.5397
    -9.9687  -8.8980  -7.7499  -7.3650  -6.5879  -6.4574  -6.2377  -6.1103

          k = 0.0307-0.5725 0.0000 ( 18166 PWs)   bands (ev):

   -24.3115 -23.9038 -23.8844 -23.5343 -12.3025 -12.2663 -11.5321 -11.3655
    -9.6887  -8.8170  -7.9933  -7.7514  -6.6607  -6.4607  -6.1467  -6.0205

          k = 0.2575-0.1328 0.0000 ( 18109 PWs)   bands (ev):

   -24.5370 -24.1294 -23.6220 -23.2756 -12.2720 -12.1615 -11.6583 -11.5846
    -9.9447  -8.8907  -7.7412  -7.3459  -6.5573  -6.4779  -6.2449  -6.1268

          k = 0.2421 0.1535 0.0000 ( 18132 PWs)   bands (ev):

   -24.5339 -24.1353 -23.6274 -23.2690 -12.0911 -12.0079 -11.9235 -11.7245
    -9.8445  -8.7843  -7.9278  -7.4149  -6.4413  -6.3462  -6.2543  -6.2356

          k = 0.2882-0.7053 0.0000 ( 18147 PWs)   bands (ev):

   -24.3012 -23.9351 -23.8768 -23.5206 -12.2437 -12.2152 -11.6552 -11.4704
    -9.5081  -8.5786  -8.2849  -7.8603  -6.5738  -6.4049  -6.1437  -6.0484

          k = 0.2728-0.4190 0.0000 ( 18128 PWs)   bands (ev):

   -24.3097 -23.9075 -23.8809 -23.5339 -12.3475 -12.2758 -11.4984 -11.3902
    -9.6438  -8.7684  -8.0121  -7.7986  -6.6160  -6.4873  -6.1263  -6.0317

          k =-0.5150 0.2656 0.0000 ( 18184 PWs)   bands (ev):

   -24.3073 -23.9076 -23.8818 -23.5339 -12.3684 -12.2603 -11.4979 -11.4247
    -9.6473  -8.7924  -7.9848  -7.7148  -6.6153  -6.4870  -6.1639  -6.0368

          k =-0.5303 0.5518 0.0000 ( 18128 PWs)   bands (ev):

   -24.2988 -23.9377 -23.8748 -23.5206 -12.2796 -12.2167 -11.6261 -11.5013
    -9.4844  -8.5746  -8.2800  -7.8452  -6.5470  -6.4160  -6.1548  -6.0572

          k =-0.4843-0.3070 0.0000 ( 18166 PWs)   bands (ev):

   -24.2879 -23.9688 -23.8672 -23.5097 -12.1331 -11.9755 -11.9705 -11.6146
    -9.3027  -8.6362  -8.1966  -8.0462  -6.4356  -6.2787  -6.2157  -6.1769

     highest occupied level (ev):    -6.0205

!    total energy              =    -176.31948856 Ry
     estimated scf accuracy    <          7.4E-12 Ry

     convergence has been achieved in   7 iterations

     negative rho (up, down):  4.947E-04 0.000E+00

     Forces acting on atoms (cartesian axes, Ry/au):

     atom    1 type  1   force =     0.00091622    0.00252597   -0.00012689
     atom    2 type  1   force =     0.00039687    0.00025414    0.00050470
     atom    3 type  1   force =    -0.00080294    0.00119906   -0.00042631
     atom    4 type  1   force =    -0.00137631   -0.00201715    0.00288455
     atom    5 type  1   force =    -0.00247040   -0.00403096    0.00018295
     atom    6 type  1   force =    -0.00146322   -0.00190255    0.00162768
     atom    7 type  1   force =    -0.00138098    0.00143969   -0.00067175
     atom    8 type  1   force =    -0.00023431   -0.00086863   -0.00009609
     atom    9 type  2   force =     0.00058886   -0.00161055   -0.00020188
     atom   10 type  2   force =     0.00052130    0.00146511   -0.00171647
     atom   11 type  2   force =     0.00288277    0.00097344   -0.00262863
     atom   12 type  2   force =     0.00242215    0.00257244    0.00066814

     Total force =     0.009887     Total SCF correction =     0.000003

     Entering Dynamics:    iteration =    25

     <vel(dt)|acc(dt)> =   0.97104951

ATOMIC_POSITIONS (angstrom)
H             4.4117840452        3.6241060998       11.2042628504
H             5.2858683281        4.2535688667       10.0399147403
H             3.3427403131        1.2549213825        8.1171706851
H             3.1838502375        2.9250359272        9.2946083498
H             4.0575182608        3.5503796656        8.1297320313
H             6.3866610321        4.0907069860        8.1071651935
H             2.9534949568        1.7097663202       11.2340721915
H             2.0813302797        3.0739406596       11.2331584291
O             5.2285701084        4.1752384372       11.0350484492
O             3.2379285681        3.0016835033        8.2998009283
O             5.4825221699        4.4695839695        8.2989139626
O             2.9831181511        2.6891749405       11.0458382668



     Writing config-only to output data dir ./output/f-BH.save/
     NEW-OLD atomic charge density approx. for the potential

     negative rho (up, down):  4.953E-04 0.000E+00

     total cpu time spent up to now is     1932.8 secs

     per-process dynamical memory:   210.2 Mb

     Self-consistent Calculation

     iteration #  1     ecut=    60.00 Ry     beta= 0.70
     Davidson diagonalization with overlap
     ethr =  1.00E-06,  avg # of iterations =  3.0

     negative rho (up, down):  4.952E-04 0.000E+00

     total cpu time spent up to now is     1940.0 secs

     total energy              =    -176.31959284 Ry
     estimated scf accuracy    <       0.00003596 Ry

     iteration #  2     ecut=    60.00 Ry     beta= 0.70
     Davidson diagonalization with overlap
     ethr =  1.12E-07,  avg # of iterations =  3.0

     negative rho (up, down):  4.952E-04 0.000E+00

     total cpu time spent up to now is     1946.3 secs

     total energy              =    -176.31960035 Ry
     estimated scf accuracy    <       0.00001751 Ry

     iteration #  3     ecut=    60.00 Ry     beta= 0.70
     Davidson diagonalization with overlap
     ethr =  5.47E-08,  avg # of iterations =  2.2

     negative rho (up, down):  4.952E-04 0.000E+00

     total cpu time spent up to now is     1951.9 secs

     total energy              =    -176.31960426 Ry
     estimated scf accuracy    <       0.00000052 Ry

     iteration #  4     ecut=    60.00 Ry     beta= 0.70
     Davidson diagonalization with overlap
     ethr =  1.62E-09,  avg # of iterations =  3.9

     negative rho (up, down):  4.952E-04 0.000E+00

     total cpu time spent up to now is     1958.6 secs

     total energy              =    -176.31960429 Ry
     estimated scf accuracy    <       0.00000058 Ry

     iteration #  5     ecut=    60.00 Ry     beta= 0.70
     Davidson diagonalization with overlap
     ethr =  1.62E-09,  avg # of iterations =  2.3

     negative rho (up, down):  4.952E-04 0.000E+00

     total cpu time spent up to now is     1964.1 secs

     total energy              =    -176.31960440 Ry
     estimated scf accuracy    <       0.00000002 Ry

     iteration #  6     ecut=    60.00 Ry     beta= 0.70
     Davidson diagonalization with overlap
     ethr =  5.80E-11,  avg # of iterations =  4.1

     negative rho (up, down):  4.952E-04 0.000E+00

     total cpu time spent up to now is     1971.9 secs

     total energy              =    -176.31960441 Ry
     estimated scf accuracy    <       0.00000004 Ry

     iteration #  7     ecut=    60.00 Ry     beta= 0.70
     Davidson diagonalization with overlap
     ethr =  5.80E-11,  avg # of iterations =  2.3

     negative rho (up, down):  4.952E-04 0.000E+00

     total cpu time spent up to now is     1977.8 secs

     total energy              =    -176.31960441 Ry
     estimated scf accuracy    <          1.6E-09 Ry

     iteration #  8     ecut=    60.00 Ry     beta= 0.70
     Davidson diagonalization with overlap
     ethr =  5.10E-12,  avg # of iterations =  3.0

     negative rho (up, down):  4.952E-04 0.000E+00

     total cpu time spent up to now is     1984.7 secs

     total energy              =    -176.31960441 Ry
     estimated scf accuracy    <          4.8E-10 Ry

     iteration #  9     ecut=    60.00 Ry     beta= 0.70
     Davidson diagonalization with overlap
     ethr =  1.49E-12,  avg # of iterations =  2.0

     negative rho (up, down):  4.952E-04 0.000E+00

     total cpu time spent up to now is     1989.6 secs

     total energy              =    -176.31960441 Ry
     estimated scf accuracy    <          1.9E-10 Ry

     iteration # 10     ecut=    60.00 Ry     beta= 0.70
     Davidson diagonalization with overlap
     ethr =  6.03E-13,  avg # of iterations =  2.0

     negative rho (up, down):  4.952E-04 0.000E+00

     total cpu time spent up to now is     1994.9 secs

     End of self-consistent calculation

          k = 0.0000 0.0000 0.0000 ( 18047 PWs)   bands (ev):

   -24.6797 -24.2725 -23.4517 -23.1204 -12.0558 -12.0306 -11.9099 -11.8456
   -10.1697  -8.9606  -7.5509  -7.0393  -6.4793  -6.4209  -6.3327  -6.2352

          k =-0.0153 0.2863 0.0000 ( 18132 PWs)   bands (ev):

   -24.5420 -24.1394 -23.6264 -23.2859 -12.2477 -12.1663 -11.7100 -11.5456
    -9.9670  -8.9030  -7.7505  -7.3692  -6.5879  -6.4669  -6.2405  -6.1239

          k = 0.0307-0.5725 0.0000 ( 18166 PWs)   bands (ev):

   -24.3137 -23.9152 -23.8892 -23.5438 -12.3172 -12.2760 -11.5365 -11.3691
    -9.6878  -8.8276  -7.9929  -7.7511  -6.6618  -6.4683  -6.1494  -6.0371

          k = 0.2575-0.1328 0.0000 ( 18109 PWs)   bands (ev):

   -24.5411 -24.1389 -23.6259 -23.2861 -12.2839 -12.1710 -11.6652 -11.5916
    -9.9417  -8.8925  -7.7484  -7.3582  -6.5581  -6.4827  -6.2417  -6.1395

          k = 0.2421 0.1535 0.0000 ( 18132 PWs)   bands (ev):

   -24.5382 -24.1449 -23.6308 -23.2796 -12.0995 -12.0168 -11.9311 -11.7364
    -9.8420  -8.7874  -7.9303  -7.4219  -6.4378  -6.3529  -6.2633  -6.2454

          k = 0.2882-0.7053 0.0000 ( 18147 PWs)   bands (ev):

   -24.3046 -23.9461 -23.8797 -23.5312 -12.2583 -12.2221 -11.6610 -11.4772
    -9.5064  -8.5871  -8.2867  -7.8621  -6.5737  -6.4123  -6.1460  -6.0634

          k = 0.2728-0.4190 0.0000 ( 18128 PWs)   bands (ev):

   -24.3128 -23.9179 -23.8852 -23.5442 -12.3609 -12.2858 -11.5031 -11.3947
    -9.6409  -8.7741  -8.0175  -7.8072  -6.6152  -6.4940  -6.1228  -6.0488

          k =-0.5150 0.2656 0.0000 ( 18184 PWs)   bands (ev):

   -24.3111 -23.9188 -23.8835 -23.5450 -12.3812 -12.2703 -11.5014 -11.4313
    -9.6421  -8.7932  -7.9963  -7.7324  -6.6148  -6.4909  -6.1587  -6.0492

          k =-0.5303 0.5518 0.0000 ( 18128 PWs)   bands (ev):

   -24.3030 -23.9487 -23.8761 -23.5320 -12.2922 -12.2244 -11.6317 -11.5097
    -9.4797  -8.5754  -8.2886  -7.8581  -6.5454  -6.4228  -6.1530  -6.0702

          k =-0.4843-0.3070 0.0000 ( 18166 PWs)   bands (ev):

   -24.2926 -23.9795 -23.8681 -23.5214 -12.1421 -11.9822 -11.9790 -11.6262
    -9.2989  -8.6416  -8.1956  -8.0570  -6.4308  -6.2885  -6.2206  -6.1885

     highest occupied level (ev):    -6.0371

!    total energy              =    -176.31960441 Ry
     estimated scf accuracy    <          1.4E-11 Ry

     convergence has been achieved in  10 iterations

     negative rho (up, down):  4.952E-04 0.000E+00

     Forces acting on atoms (cartesian axes, Ry/au):

     atom    1 type  1   force =     0.00011808    0.00136574    0.00027625
     atom    2 type  1   force =     0.00059702    0.00028254   -0.00015290
     atom    3 type  1   force =     0.00090196    0.00039474   -0.00079890
     atom    4 type  1   force =    -0.00088343   -0.00118220    0.00076982
     atom    5 type  1   force =    -0.00084526   -0.00232320   -0.00008971
     atom    6 type  1   force =    -0.00029474   -0.00042045    0.00061460
     atom    7 type  1   force =    -0.00011526    0.00034944   -0.00049897
     atom    8 type  1   force =     0.00053951    0.00046712   -0.00044801
     atom    9 type  2   force =     0.00154101   -0.00025210   -0.00041813
     atom   10 type  2   force =    -0.00138915   -0.00041062    0.00096007
     atom   11 type  2   force =    -0.00016925   -0.00024534   -0.00112498
     atom   12 type  2   force =    -0.00000049    0.00197432    0.00091086

     Total force =     0.005135     Total SCF correction =     0.000003

     Entering Dynamics:    iteration =    26

     <vel(dt)|acc(dt)> =   0.95199671

ATOMIC_POSITIONS (angstrom)
H             4.4085446675        3.6295254913       11.2049461524
H             5.2858662537        4.2545332970       10.0420137682
H             3.3402468251        1.2600080627        8.1133147611
H             3.1820518079        2.9181985656        9.2951895401
H             4.0582761340        3.5435289228        8.1305301190
H             6.3882728687        4.0906702115        8.1113184251
H             2.9558418412        1.7131839302       11.2320195551
H             2.0805270771        3.0683407227       11.2312900507
O             5.2314039538        4.1725091139       11.0363069338
O             3.2352785294        3.0005919267        8.3013132325
O             5.4840532605        4.4733653102        8.2954689500
O             2.9850232320        2.6936512034       11.0459745899



     Writing config-only to output data dir ./output/f-BH.save/
     NEW-OLD atomic charge density approx. for the potential

     negative rho (up, down):  4.952E-04 0.000E+00

     total cpu time spent up to now is     2007.7 secs

     per-process dynamical memory:   210.2 Mb

     Self-consistent Calculation

     iteration #  1     ecut=    60.00 Ry     beta= 0.70
     Davidson diagonalization with overlap
     ethr =  1.00E-06,  avg # of iterations =  3.0

     negative rho (up, down):  4.950E-04 0.000E+00

     total cpu time spent up to now is     2015.1 secs

     total energy              =    -176.31963507 Ry
     estimated scf accuracy    <       0.00004729 Ry

     iteration #  2     ecut=    60.00 Ry     beta= 0.70
     Davidson diagonalization with overlap
     ethr =  1.48E-07,  avg # of iterations =  2.0

     negative rho (up, down):  4.950E-04 0.000E+00

     total cpu time spent up to now is     2020.8 secs

     total energy              =    -176.31964352 Ry
     estimated scf accuracy    <       0.00001179 Ry

     iteration #  3     ecut=    60.00 Ry     beta= 0.70
     Davidson diagonalization with overlap
     ethr =  3.68E-08,  avg # of iterations =  2.0

     negative rho (up, down):  4.950E-04 0.000E+00

     total cpu time spent up to now is     2026.4 secs

     total energy              =    -176.31964645 Ry
     estimated scf accuracy    <       0.00000112 Ry

     iteration #  4     ecut=    60.00 Ry     beta= 0.70
     Davidson diagonalization with overlap
     ethr =  3.50E-09,  avg # of iterations =  2.0

     negative rho (up, down):  4.950E-04 0.000E+00

     total cpu time spent up to now is     2031.4 secs

     total energy              =    -176.31964650 Ry
     estimated scf accuracy    <       0.00000014 Ry

     iteration #  5     ecut=    60.00 Ry     beta= 0.70
     Davidson diagonalization with overlap
     ethr =  4.29E-10,  avg # of iterations =  3.0

     negative rho (up, down):  4.950E-04 0.000E+00

     total cpu time spent up to now is     2037.5 secs

     total energy              =    -176.31964655 Ry
     estimated scf accuracy    <       0.00000002 Ry

     iteration #  6     ecut=    60.00 Ry     beta= 0.70
     Davidson diagonalization with overlap
     ethr =  5.52E-11,  avg # of iterations =  2.1

     negative rho (up, down):  4.950E-04 0.000E+00

     total cpu time spent up to now is     2042.9 secs

     total energy              =    -176.31964655 Ry
     estimated scf accuracy    <          2.0E-09 Ry

     iteration #  7     ecut=    60.00 Ry     beta= 0.70
     Davidson diagonalization with overlap
     ethr =  6.30E-12,  avg # of iterations =  3.1

     negative rho (up, down):  4.950E-04 0.000E+00

     total cpu time spent up to now is     2049.1 secs

     total energy              =    -176.31964655 Ry
     estimated scf accuracy    <          2.5E-10 Ry

     iteration #  8     ecut=    60.00 Ry     beta= 0.70
     Davidson diagonalization with overlap
     ethr =  7.73E-13,  avg # of iterations =  2.1

     negative rho (up, down):  4.950E-04 0.000E+00

     total cpu time spent up to now is     2054.5 secs

     End of self-consistent calculation

          k = 0.0000 0.0000 0.0000 ( 18047 PWs)   bands (ev):

   -24.6851 -24.2800 -23.4563 -23.1266 -12.0600 -12.0326 -11.9232 -11.8550
   -10.1674  -8.9681  -7.5526  -7.0464  -6.4852  -6.4228  -6.3429  -6.2388

          k =-0.0153 0.2863 0.0000 ( 18132 PWs)   bands (ev):

   -24.5472 -24.1470 -23.6311 -23.2919 -12.2546 -12.1748 -11.7152 -11.5529
    -9.9658  -8.9131  -7.7484  -7.3725  -6.5885  -6.4759  -6.2482  -6.1333

          k = 0.0307-0.5725 0.0000 ( 18166 PWs)   bands (ev):

   -24.3186 -23.9270 -23.8909 -23.5490 -12.3242 -12.2855 -11.5407 -11.3751
    -9.6885  -8.8424  -7.9882  -7.7491  -6.6627  -6.4749  -6.1583  -6.0501

          k = 0.2575-0.1328 0.0000 ( 18109 PWs)   bands (ev):

   -24.5462 -24.1460 -23.6307 -23.2928 -12.2902 -12.1742 -11.6742 -11.5997
    -9.9389  -8.8986  -7.7556  -7.3721  -6.5618  -6.4836  -6.2419  -6.1474

          k = 0.2421 0.1535 0.0000 ( 18132 PWs)   bands (ev):

   -24.5440 -24.1530 -23.6343 -23.2855 -12.1032 -12.0232 -11.9382 -11.7492
    -9.8399  -8.7947  -7.9322  -7.4284  -6.4358  -6.3621  -6.2694  -6.2530

          k = 0.2882-0.7053 0.0000 ( 18147 PWs)   bands (ev):

   -24.3106 -23.9587 -23.8793 -23.5364 -12.2657 -12.2296 -11.6665 -11.4858
    -9.5058  -8.5996  -8.2856  -7.8628  -6.5740  -6.4173  -6.1529  -6.0754

          k = 0.2728-0.4190 0.0000 ( 18128 PWs)   bands (ev):

   -24.3172 -23.9288 -23.8870 -23.5509 -12.3682 -12.2910 -11.5092 -11.4015
    -9.6386  -8.7828  -8.0214  -7.8171  -6.6155  -6.4972  -6.1257  -6.0606

          k =-0.5150 0.2656 0.0000 ( 18184 PWs)   bands (ev):

   -24.3150 -23.9306 -23.8834 -23.5535 -12.3874 -12.2731 -11.5084 -11.4397
    -9.6368  -8.7960  -8.0085  -7.7545  -6.6160  -6.4902  -6.1576  -6.0569

          k =-0.5303 0.5518 0.0000 ( 18128 PWs)   bands (ev):

   -24.3085 -23.9613 -23.8749 -23.5388 -12.2996 -12.2270 -11.6394 -11.5199
    -9.4751  -8.5781  -8.2973  -7.8732  -6.5453  -6.4256  -6.1551  -6.0796

          k =-0.4843-0.3070 0.0000 ( 18166 PWs)   bands (ev):

   -24.2999 -23.9918 -23.8664 -23.5266 -12.1460 -11.9928 -11.9823 -11.6393
    -9.2964  -8.6463  -8.2018  -8.0612  -6.4279  -6.2929  -6.2298  -6.1985

     highest occupied level (ev):    -6.0501

!    total energy              =    -176.31964655 Ry
     estimated scf accuracy    <          2.2E-11 Ry

     convergence has been achieved in   8 iterations

     negative rho (up, down):  4.950E-04 0.000E+00

     Forces acting on atoms (cartesian axes, Ry/au):

     atom    1 type  1   force =     0.00100019    0.00121371    0.00030023
     atom    2 type  1   force =     0.00082126    0.00029908   -0.00119203
     atom    3 type  1   force =     0.00206024   -0.00181341   -0.00071018
     atom    4 type  1   force =    -0.00049291   -0.00031171    0.00167938
     atom    5 type  1   force =    -0.00091896   -0.00143488    0.00021333
     atom    6 type  1   force =    -0.00033338    0.00119675   -0.00014589
     atom    7 type  1   force =     0.00121542    0.00108794   -0.00050752
     atom    8 type  1   force =    -0.00172405    0.00310148   -0.00000939
     atom    9 type  2   force =     0.00028898    0.00039609    0.00006443
     atom   10 type  2   force =    -0.00111883   -0.00104411   -0.00017590
     atom   11 type  2   force =    -0.00178982   -0.00051876   -0.00031998
     atom   12 type  2   force =     0.00099186   -0.00217219    0.00080350

     Total force =     0.006965     Total SCF correction =     0.000006

     Entering Dynamics:    iteration =    27

     <vel(dt)|acc(dt)> =  -0.12511555

ATOMIC_POSITIONS (angstrom)
H             4.4089351909        3.6298309794       11.2050116941
H             5.2861320327        4.2546014657       10.0417082710
H             3.3408572857        1.2595760015        8.1132036480
H             3.1818438673        2.9181764673        9.2956814820
H             4.0578240465        3.5430255358        8.1305278136
H             6.3880446045        4.0907482262        8.1112658705
H             2.9558967844        1.7133577899       11.2319066482
H             2.0803742291        3.0691916936       11.2312820565
O             5.2316034099        4.1725991909       11.0361696130
O             3.2349962440        3.0004435307        8.3013351322
O             5.4837238857        4.4730769552        8.2952872189
O             2.9851548700        2.6934789218       11.0463066302



     Writing config-only to output data dir ./output/f-BH.save/
     NEW-OLD atomic charge density approx. for the potential

     negative rho (up, down):  4.949E-04 0.000E+00

     total cpu time spent up to now is     2067.2 secs

     per-process dynamical memory:   210.2 Mb

     Self-consistent Calculation

     iteration #  1     ecut=    60.00 Ry     beta= 0.70
     Davidson diagonalization with overlap
     ethr =  1.00E-06,  avg # of iterations =  2.0

     Threshold (ethr) on eigenvalues was too large:
     Diagonalizing with lowered threshold

     Davidson diagonalization with overlap
     ethr =  1.14E-09,  avg # of iterations =  3.0

     negative rho (up, down):  4.949E-04 0.000E+00

     total cpu time spent up to now is     2078.3 secs

     total energy              =    -176.31966574 Ry
     estimated scf accuracy    <       0.00000043 Ry

     iteration #  2     ecut=    60.00 Ry     beta= 0.70
     Davidson diagonalization with overlap
     ethr =  1.35E-09,  avg # of iterations =  2.0

     negative rho (up, down):  4.949E-04 0.000E+00

     total cpu time spent up to now is     2083.6 secs

     total energy              =    -176.31966579 Ry
     estimated scf accuracy    <       0.00000003 Ry

     iteration #  3     ecut=    60.00 Ry     beta= 0.70
     Davidson diagonalization with overlap
     ethr =  9.15E-11,  avg # of iterations =  2.0

     negative rho (up, down):  4.949E-04 0.000E+00

     total cpu time spent up to now is     2089.2 secs

     total energy              =    -176.31966580 Ry
     estimated scf accuracy    <          3.3E-09 Ry

     iteration #  4     ecut=    60.00 Ry     beta= 0.70
     Davidson diagonalization with overlap
     ethr =  1.03E-11,  avg # of iterations =  2.0

     negative rho (up, down):  4.949E-04 0.000E+00

     total cpu time spent up to now is     2094.9 secs

     total energy              =    -176.31966580 Ry
     estimated scf accuracy    <          4.6E-10 Ry

     iteration #  5     ecut=    60.00 Ry     beta= 0.70
     Davidson diagonalization with overlap
     ethr =  1.43E-12,  avg # of iterations =  2.0

     negative rho (up, down):  4.949E-04 0.000E+00

     total cpu time spent up to now is     2100.3 secs

     End of self-consistent calculation

          k = 0.0000 0.0000 0.0000 ( 18047 PWs)   bands (ev):

   -24.6852 -24.2802 -23.4565 -23.1269 -12.0589 -12.0338 -11.9239 -11.8551
   -10.1672  -8.9679  -7.5533  -7.0472  -6.4854  -6.4231  -6.3434  -6.2387

          k =-0.0153 0.2863 0.0000 ( 18132 PWs)   bands (ev):

   -24.5474 -24.1472 -23.6314 -23.2923 -12.2539 -12.1754 -11.7155 -11.5533
    -9.9661  -8.9132  -7.7487  -7.3728  -6.5889  -6.4760  -6.2487  -6.1337

          k = 0.0307-0.5725 0.0000 ( 18166 PWs)   bands (ev):

   -24.3187 -23.9272 -23.8912 -23.5494 -12.3228 -12.2866 -11.5412 -11.3754
    -9.6893  -8.8428  -7.9880  -7.7489  -6.6630  -6.4749  -6.1588  -6.0507

          k = 0.2575-0.1328 0.0000 ( 18109 PWs)   bands (ev):

   -24.5463 -24.1462 -23.6310 -23.2932 -12.2907 -12.1752 -11.6730 -11.6001
    -9.9384  -8.8984  -7.7567  -7.3731  -6.5618  -6.4839  -6.2422  -6.1475

          k = 0.2421 0.1535 0.0000 ( 18132 PWs)   bands (ev):

   -24.5441 -24.1532 -23.6346 -23.2858 -12.1023 -12.0240 -11.9381 -11.7500
    -9.8397  -8.7945  -7.9329  -7.4290  -6.4359  -6.3623  -6.2697  -6.2534

          k = 0.2882-0.7053 0.0000 ( 18147 PWs)   bands (ev):

   -24.3108 -23.9589 -23.8795 -23.5367 -12.2643 -12.2308 -11.6669 -11.4863
    -9.5062  -8.5999  -8.2858  -7.8629  -6.5742  -6.4173  -6.1533  -6.0760

          k = 0.2728-0.4190 0.0000 ( 18128 PWs)   bands (ev):

   -24.3173 -23.9290 -23.8872 -23.5513 -12.3682 -12.2919 -11.5088 -11.4017
    -9.6384  -8.7831  -8.0220  -7.8178  -6.6157  -6.4972  -6.1262  -6.0611

          k =-0.5150 0.2656 0.0000 ( 18184 PWs)   bands (ev):

   -24.3151 -23.9308 -23.8837 -23.5539 -12.3881 -12.2743 -11.5067 -11.4401
    -9.6355  -8.7959  -8.0098  -7.7560  -6.6159  -6.4903  -6.1579  -6.0572

          k =-0.5303 0.5518 0.0000 ( 18128 PWs)   bands (ev):

   -24.3087 -23.9615 -23.8751 -23.5391 -12.2998 -12.2278 -11.6387 -11.5202
    -9.4743  -8.5778  -8.2986  -7.8742  -6.5452  -6.4259  -6.1554  -6.0800

          k =-0.4843-0.3070 0.0000 ( 18166 PWs)   bands (ev):

   -24.3001 -23.9920 -23.8666 -23.5269 -12.1453 -11.9933 -11.9825 -11.6401
    -9.2962  -8.6468  -8.2018  -8.0620  -6.4278  -6.2933  -6.2297  -6.1994

     highest occupied level (ev):    -6.0507

!    total energy              =    -176.31966580 Ry
     estimated scf accuracy    <          1.1E-11 Ry

     convergence has been achieved in   5 iterations

     negative rho (up, down):  4.949E-04 0.000E+00

     Forces acting on atoms (cartesian axes, Ry/au):

     atom    1 type  1   force =     0.00075312    0.00099428    0.00031999
     atom    2 type  1   force =     0.00075110    0.00026312   -0.00098462
     atom    3 type  1   force =     0.00182538   -0.00157901   -0.00069896
     atom    4 type  1   force =    -0.00046144   -0.00029650    0.00105407
     atom    5 type  1   force =    -0.00060987   -0.00118878    0.00012773
     atom    6 type  1   force =    -0.00026684    0.00096979   -0.00013775
     atom    7 type  1   force =     0.00108173    0.00056867   -0.00034057
     atom    8 type  1   force =    -0.00103938    0.00261709   -0.00012465
     atom    9 type  2   force =     0.00064927    0.00058121   -0.00019851
     atom   10 type  2   force =    -0.00145181   -0.00132815    0.00055858
     atom   11 type  2   force =    -0.00161460   -0.00051730   -0.00029975
     atom   12 type  2   force =     0.00038333   -0.00108443    0.00072444

     Total force =     0.005759     Total SCF correction =     0.000007

     Entering Dynamics:    iteration =    28

     <vel(dt)|acc(dt)> =   0.95325951

ATOMIC_POSITIONS (angstrom)
H             4.4107070681        3.6318802546       11.2055007849
H             5.2876464207        4.2550533013       10.0402809082
H             3.3440087418        1.2575502472        8.1121842772
H             3.1804990384        2.9174703112        9.2978920873
H             4.0556354890        3.5397807725        8.1305083654
H             6.3868874855        4.0910348539        8.1113092388
H             2.9564056499        1.7140246781       11.2312924729
H             2.0801091301        3.0733138634       11.2309362015
O             5.2334818287        4.1732337797       11.0351166191
O             3.2325521568        2.9989100836        8.3025757142
O             5.4820544714        4.4717441309        8.2939339821
O             2.9853989702        2.6941104817       11.0481554263



     Writing config-only to output data dir ./output/f-BH.save/
     NEW-OLD atomic charge density approx. for the potential

     negative rho (up, down):  4.943E-04 0.000E+00

     total cpu time spent up to now is     2112.9 secs

     per-process dynamical memory:   210.2 Mb

     Self-consistent Calculation

     iteration #  1     ecut=    60.00 Ry     beta= 0.70
     Davidson diagonalization with overlap
     ethr =  1.00E-06,  avg # of iterations =  3.0

     Threshold (ethr) on eigenvalues was too large:
     Diagonalizing with lowered threshold

     Davidson diagonalization with overlap
     ethr =  3.70E-08,  avg # of iterations =  2.1

     negative rho (up, down):  4.942E-04 0.000E+00

     total cpu time spent up to now is     2124.6 secs

     total energy              =    -176.31974061 Ry
     estimated scf accuracy    <       0.00001378 Ry

     iteration #  2     ecut=    60.00 Ry     beta= 0.70
     Davidson diagonalization with overlap
     ethr =  4.31E-08,  avg # of iterations =  2.0

     negative rho (up, down):  4.942E-04 0.000E+00

     total cpu time spent up to now is     2129.7 secs

     total energy              =    -176.31974200 Ry
     estimated scf accuracy    <       0.00000083 Ry

     iteration #  3     ecut=    60.00 Ry     beta= 0.70
     Davidson diagonalization with overlap
     ethr =  2.60E-09,  avg # of iterations =  2.2

     negative rho (up, down):  4.942E-04 0.000E+00

     total cpu time spent up to now is     2135.4 secs

     total energy              =    -176.31974212 Ry
     estimated scf accuracy    <       0.00000017 Ry

     iteration #  4     ecut=    60.00 Ry     beta= 0.70
     Davidson diagonalization with overlap
     ethr =  5.28E-10,  avg # of iterations =  2.3

     negative rho (up, down):  4.942E-04 0.000E+00

     total cpu time spent up to now is     2141.0 secs

     total energy              =    -176.31974216 Ry
     estimated scf accuracy    <       0.00000001 Ry

     iteration #  5     ecut=    60.00 Ry     beta= 0.70
     Davidson diagonalization with overlap
     ethr =  4.55E-11,  avg # of iterations =  2.0

     negative rho (up, down):  4.942E-04 0.000E+00

     total cpu time spent up to now is     2146.4 secs

     total energy              =    -176.31974216 Ry
     estimated scf accuracy    <          1.3E-09 Ry

     iteration #  6     ecut=    60.00 Ry     beta= 0.70
     Davidson diagonalization with overlap
     ethr =  4.09E-12,  avg # of iterations =  2.5

     negative rho (up, down):  4.942E-04 0.000E+00

     total cpu time spent up to now is     2152.3 secs

     End of self-consistent calculation

          k = 0.0000 0.0000 0.0000 ( 18047 PWs)   bands (ev):

   -24.6860 -24.2806 -23.4579 -23.1276 -12.0548 -12.0347 -11.9270 -11.8557
   -10.1658  -8.9694  -7.5557  -7.0506  -6.4868  -6.4235  -6.3458  -6.2371

          k =-0.0153 0.2863 0.0000 ( 18132 PWs)   bands (ev):

   -24.5483 -24.1477 -23.6325 -23.2929 -12.2493 -12.1765 -11.7173 -11.5560
    -9.9658  -8.9156  -7.7488  -7.3741  -6.5897  -6.4766  -6.2506  -6.1346

          k = 0.0307-0.5725 0.0000 ( 18166 PWs)   bands (ev):

   -24.3198 -23.9288 -23.8911 -23.5500 -12.3138 -12.2910 -11.5442 -11.3785
    -9.6912  -8.8464  -7.9853  -7.7481  -6.6633  -6.4748  -6.1612  -6.0530

          k = 0.2575-0.1328 0.0000 ( 18109 PWs)   bands (ev):

   -24.5469 -24.1465 -23.6325 -23.2940 -12.2902 -12.1763 -11.6702 -11.6028
    -9.9354  -8.8998  -7.7605  -7.3778  -6.5618  -6.4844  -6.2433  -6.1474

          k = 0.2421 0.1535 0.0000 ( 18132 PWs)   bands (ev):

   -24.5453 -24.1540 -23.6354 -23.2861 -12.0987 -12.0264 -11.9377 -11.7536
    -9.8382  -8.7958  -7.9348  -7.4318  -6.4355  -6.3636  -6.2708  -6.2542

          k = 0.2882-0.7053 0.0000 ( 18147 PWs)   bands (ev):

   -24.3124 -23.9607 -23.8791 -23.5367 -12.2565 -12.2353 -11.6689 -11.4899
    -9.5066  -8.6027  -8.2851  -7.8631  -6.5738  -6.4171  -6.1550  -6.0783

          k = 0.2728-0.4190 0.0000 ( 18128 PWs)   bands (ev):

   -24.3177 -23.9305 -23.8874 -23.5524 -12.3655 -12.2926 -11.5091 -11.4042
    -9.6362  -8.7855  -8.0230  -7.8210  -6.6155  -6.4967  -6.1282  -6.0626

          k =-0.5150 0.2656 0.0000 ( 18184 PWs)   bands (ev):

   -24.3149 -23.9323 -23.8841 -23.5556 -12.3878 -12.2755 -11.5030 -11.4433
    -9.6295  -8.7972  -8.0145  -7.7637  -6.6150  -6.4900  -6.1590  -6.0579

          k =-0.5303 0.5518 0.0000 ( 18128 PWs)   bands (ev):

   -24.3096 -23.9633 -23.8750 -23.5396 -12.2992 -12.2285 -11.6383 -11.5224
    -9.4698  -8.5775  -8.3033  -7.8794  -6.5441  -6.4261  -6.1568  -6.0814

          k =-0.4843-0.3070 0.0000 ( 18166 PWs)   bands (ev):

   -24.3023 -23.9937 -23.8662 -23.5263 -12.1419 -11.9967 -11.9816 -11.6442
    -9.2943  -8.6481  -8.2024  -8.0651  -6.4258  -6.2939  -6.2301  -6.2032

     highest occupied level (ev):    -6.0530

!    total energy              =    -176.31974216 Ry
     estimated scf accuracy    <          6.3E-11 Ry

     convergence has been achieved in   6 iterations

     negative rho (up, down):  4.942E-04 0.000E+00

     Forces acting on atoms (cartesian axes, Ry/au):

     atom    1 type  1   force =     0.00035262    0.00049799    0.00021071
     atom    2 type  1   force =     0.00045952    0.00013742   -0.00062933
     atom    3 type  1   force =     0.00058456   -0.00043884   -0.00059350
     atom    4 type  1   force =    -0.00041522   -0.00029208   -0.00000192
     atom    5 type  1   force =    -0.00040422   -0.00075537    0.00008311
     atom    6 type  1   force =     0.00011724   -0.00021251   -0.00012570
     atom    7 type  1   force =     0.00052731    0.00017731    0.00006285
     atom    8 type  1   force =     0.00042344    0.00111629   -0.00023397
     atom    9 type  2   force =     0.00122132    0.00109330   -0.00060043
     atom   10 type  2   force =    -0.00141970   -0.00162483    0.00163490
     atom   11 type  2   force =    -0.00094772   -0.00061489   -0.00024800
     atom   12 type  2   force =    -0.00049915    0.00091621    0.00044127

     Total force =     0.004218     Total SCF correction =     0.000015

     Entering Dynamics:    iteration =    29

     <vel(dt)|acc(dt)> =   0.95795453

ATOMIC_POSITIONS (angstrom)
H             4.4132924131        3.6372878460       11.2065896757
H             5.2905355602        4.2561685260       10.0378988113
H             3.3488212209        1.2554062610        8.1090310380
H             3.1773428620        2.9141653197        9.3021515517
H             4.0514250081        3.5316318299        8.1308182565
H             6.3854207618        4.0909512855        8.1124499087
H             2.9580694548        1.7166025303       11.2297349585
H             2.0797052245        3.0795131298       11.2297573863
O             5.2382357957        4.1743642141       11.0332719719
O             3.2270380267        2.9950609822        8.3059150987
O             5.4791954218        4.4700004536        8.2904014279
O             2.9863047012        2.6969543799       11.0516659928



     Writing config-only to output data dir ./output/f-BH.save/
     NEW-OLD atomic charge density approx. for the potential

     negative rho (up, down):  4.926E-04 0.000E+00

     total cpu time spent up to now is     2165.1 secs

     per-process dynamical memory:   210.2 Mb

     Self-consistent Calculation

     iteration #  1     ecut=    60.00 Ry     beta= 0.70
     Davidson diagonalization with overlap
     ethr =  1.00E-06,  avg # of iterations =  4.0

     negative rho (up, down):  4.925E-04 0.000E+00

     total cpu time spent up to now is     2173.2 secs

     total energy              =    -176.31981986 Ry
     estimated scf accuracy    <       0.00006249 Ry

     iteration #  2     ecut=    60.00 Ry     beta= 0.70
     Davidson diagonalization with overlap
     ethr =  1.95E-07,  avg # of iterations =  2.0

     negative rho (up, down):  4.925E-04 0.000E+00

     total cpu time spent up to now is     2178.5 secs

     total energy              =    -176.31982731 Ry
     estimated scf accuracy    <       0.00000428 Ry

     iteration #  3     ecut=    60.00 Ry     beta= 0.70
     Davidson diagonalization with overlap
     ethr =  1.34E-08,  avg # of iterations =  2.6

     negative rho (up, down):  4.925E-04 0.000E+00

     total cpu time spent up to now is     2184.4 secs

     total energy              =    -176.31982813 Ry
     estimated scf accuracy    <       0.00000077 Ry

     iteration #  4     ecut=    60.00 Ry     beta= 0.70
     Davidson diagonalization with overlap
     ethr =  2.40E-09,  avg # of iterations =  2.1

     negative rho (up, down):  4.925E-04 0.000E+00

     total cpu time spent up to now is     2190.1 secs

     total energy              =    -176.31982831 Ry
     estimated scf accuracy    <       0.00000007 Ry

     iteration #  5     ecut=    60.00 Ry     beta= 0.70
     Davidson diagonalization with overlap
     ethr =  2.05E-10,  avg # of iterations =  2.0

     negative rho (up, down):  4.925E-04 0.000E+00

     total cpu time spent up to now is     2195.7 secs

     total energy              =    -176.31982832 Ry
     estimated scf accuracy    <          8.1E-09 Ry

     iteration #  6     ecut=    60.00 Ry     beta= 0.70
     Davidson diagonalization with overlap
     ethr =  2.52E-11,  avg # of iterations =  2.0

     negative rho (up, down):  4.925E-04 0.000E+00

     total cpu time spent up to now is     2201.3 secs

     total energy              =    -176.31982832 Ry
     estimated scf accuracy    <          4.2E-10 Ry

     iteration #  7     ecut=    60.00 Ry     beta= 0.70
     Davidson diagonalization with overlap
     ethr =  1.30E-12,  avg # of iterations =  3.8

     negative rho (up, down):  4.925E-04 0.000E+00

     total cpu time spent up to now is     2207.8 secs

     total energy              =    -176.31982832 Ry
     estimated scf accuracy    <          1.3E-10 Ry

     iteration #  8     ecut=    60.00 Ry     beta= 0.70
     Davidson diagonalization with overlap
     ethr =  4.06E-13,  avg # of iterations =  2.0

     negative rho (up, down):  4.925E-04 0.000E+00

     total cpu time spent up to now is     2213.0 secs

     End of self-consistent calculation

          k = 0.0000 0.0000 0.0000 ( 18047 PWs)   bands (ev):

   -24.6881 -24.2818 -23.4603 -23.1280 -12.0499 -12.0323 -11.9355 -11.8554
   -10.1626  -8.9756  -7.5599  -7.0579  -6.4913  -6.4238  -6.3518  -6.2332

          k =-0.0153 0.2863 0.0000 ( 18132 PWs)   bands (ev):

   -24.5504 -24.1490 -23.6346 -23.2933 -12.2432 -12.1757 -11.7210 -11.5613
    -9.9645  -8.9233  -7.7479  -7.3769  -6.5910  -6.4793  -6.2555  -6.1366

          k = 0.0307-0.5725 0.0000 ( 18166 PWs)   bands (ev):

   -24.3223 -23.9347 -23.8885 -23.5501 -12.3009 -12.2948 -11.5503 -11.3848
    -9.6933  -8.8563  -7.9793  -7.7470  -6.6633  -6.4756  -6.1671  -6.0587

          k = 0.2575-0.1328 0.0000 ( 18109 PWs)   bands (ev):

   -24.5485 -24.1474 -23.6353 -23.2950 -12.2896 -12.1748 -11.6685 -11.6072
    -9.9291  -8.9050  -7.7684  -7.3890  -6.5623  -6.4849  -6.2452  -6.1475

          k = 0.2421 0.1535 0.0000 ( 18132 PWs)   bands (ev):

   -24.5481 -24.1562 -23.6363 -23.2858 -12.0935 -12.0301 -11.9355 -11.7614
    -9.8346  -8.8013  -7.9382  -7.4375  -6.4334  -6.3686  -6.2746  -6.2544

          k = 0.2882-0.7053 0.0000 ( 18147 PWs)   bands (ev):

   -24.3163 -23.9673 -23.8754 -23.5354 -12.2484 -12.2372 -11.6733 -11.4974
    -9.5059  -8.6108  -8.2835  -7.8640  -6.5725  -6.4170  -6.1596  -6.0841

          k = 0.2728-0.4190 0.0000 ( 18128 PWs)   bands (ev):

   -24.3189 -23.9364 -23.8851 -23.5539 -12.3628 -12.2898 -11.5119 -11.4091
    -9.6309  -8.7923  -8.0254  -7.8295  -6.6147  -6.4956  -6.1325  -6.0664

          k =-0.5150 0.2656 0.0000 ( 18184 PWs)   bands (ev):

   -24.3146 -23.9387 -23.8815 -23.5585 -12.3874 -12.2737 -11.4995 -11.4494
    -9.6169  -8.8008  -8.0253  -7.7825  -6.6131  -6.4884  -6.1604  -6.0598

          k =-0.5303 0.5518 0.0000 ( 18128 PWs)   bands (ev):

   -24.3121 -23.9699 -23.8717 -23.5396 -12.2999 -12.2253 -11.6396 -11.5275
    -9.4602  -8.5785  -8.3131  -7.8920  -6.5413  -6.4261  -6.1597  -6.0849

          k =-0.4843-0.3070 0.0000 ( 18166 PWs)   bands (ev):

   -24.3078 -23.9999 -23.8622 -23.5236 -12.1371 -12.0041 -11.9770 -11.6535
    -9.2900  -8.6521  -8.2056  -8.0698  -6.4206  -6.2945  -6.2350  -6.2101

     highest occupied level (ev):    -6.0587

!    total energy              =    -176.31982832 Ry
     estimated scf accuracy    <          5.1E-12 Ry

     convergence has been achieved in   8 iterations

     negative rho (up, down):  4.925E-04 0.000E+00

     Forces acting on atoms (cartesian axes, Ry/au):

     atom    1 type  1   force =     0.00057333    0.00007208   -0.00010005
     atom    2 type  1   force =     0.00004655   -0.00001417   -0.00027420
     atom    3 type  1   force =    -0.00134542    0.00025692   -0.00019579
     atom    4 type  1   force =    -0.00027098   -0.00013714   -0.00072698
     atom    5 type  1   force =    -0.00027343    0.00007744    0.00016225
     atom    6 type  1   force =     0.00013849   -0.00164522   -0.00016675
     atom    7 type  1   force =    -0.00008352   -0.00030403    0.00074678
     atom    8 type  1   force =     0.00190869   -0.00061045   -0.00017576
     atom    9 type  2   force =     0.00101570    0.00160231   -0.00102114
     atom   10 type  2   force =    -0.00094882   -0.00197741    0.00216242
     atom   11 type  2   force =     0.00041926   -0.00042934   -0.00026570
     atom   12 type  2   force =    -0.00117986    0.00310900   -0.00014509

     Total force =     0.006013     Total SCF correction =     0.000007

     Entering Dynamics:    iteration =    30

     <vel(dt)|acc(dt)> =   0.98763432

ATOMIC_POSITIONS (angstrom)
H             4.4172328276        3.6449362683       11.2078165365
H             5.2942072189        4.2576788850       10.0345751407
H             3.3532602750        1.2530139802        8.1046232029
H             3.1729689274        2.9092374950        9.3078032738
H             4.0456518801        3.5207405886        8.1315956389
H             6.3836725874        4.0894504175        8.1141176881
H             2.9604369741        1.7204628550       11.2282126738
H             2.0799444033        3.0866051024       11.2281755011
O             5.2446888053        4.1768159982       11.0305150647
O             3.2195255046        2.9885511690        8.3110910259
O             5.4762719906        4.4679816009        8.2853249213
O             2.9875250566        2.7026323981       11.0558354102



     Writing config-only to output data dir ./output/f-BH.save/
     NEW-OLD atomic charge density approx. for the potential

     negative rho (up, down):  4.900E-04 0.000E+00

     total cpu time spent up to now is     2225.7 secs

     per-process dynamical memory:   210.2 Mb

     Self-consistent Calculation

     iteration #  1     ecut=    60.00 Ry     beta= 0.70
     Davidson diagonalization with overlap
     ethr =  1.00E-06,  avg # of iterations =  4.8

     negative rho (up, down):  4.900E-04 0.000E+00

     total cpu time spent up to now is     2234.7 secs

     total energy              =    -176.31986681 Ry
     estimated scf accuracy    <       0.00013840 Ry

     iteration #  2     ecut=    60.00 Ry     beta= 0.70
     Davidson diagonalization with overlap
     ethr =  4.32E-07,  avg # of iterations =  2.0

     negative rho (up, down):  4.901E-04 0.000E+00

     total cpu time spent up to now is     2240.0 secs

     total energy              =    -176.31988271 Ry
     estimated scf accuracy    <       0.00000785 Ry

     iteration #  3     ecut=    60.00 Ry     beta= 0.70
     Davidson diagonalization with overlap
     ethr =  2.45E-08,  avg # of iterations =  2.7

     negative rho (up, down):  4.901E-04 0.000E+00

     total cpu time spent up to now is     2245.9 secs

     total energy              =    -176.31988408 Ry
     estimated scf accuracy    <       0.00000183 Ry

     iteration #  4     ecut=    60.00 Ry     beta= 0.70
     Davidson diagonalization with overlap
     ethr =  5.71E-09,  avg # of iterations =  2.0

     negative rho (up, down):  4.901E-04 0.000E+00

     total cpu time spent up to now is     2251.5 secs

     total energy              =    -176.31988450 Ry
     estimated scf accuracy    <       0.00000013 Ry

     iteration #  5     ecut=    60.00 Ry     beta= 0.70
     Davidson diagonalization with overlap
     ethr =  4.10E-10,  avg # of iterations =  2.0

     negative rho (up, down):  4.901E-04 0.000E+00

     total cpu time spent up to now is     2257.1 secs

     total energy              =    -176.31988451 Ry
     estimated scf accuracy    <       0.00000003 Ry

     iteration #  6     ecut=    60.00 Ry     beta= 0.70
     Davidson diagonalization with overlap
     ethr =  8.70E-11,  avg # of iterations =  2.0

     negative rho (up, down):  4.901E-04 0.000E+00

     total cpu time spent up to now is     2262.4 secs

     total energy              =    -176.31988451 Ry
     estimated scf accuracy    <          1.8E-09 Ry

     iteration #  7     ecut=    60.00 Ry     beta= 0.70
     Davidson diagonalization with overlap
     ethr =  5.47E-12,  avg # of iterations =  3.2

     negative rho (up, down):  4.901E-04 0.000E+00

     total cpu time spent up to now is     2269.3 secs

     total energy              =    -176.31988451 Ry
     estimated scf accuracy    <          1.5E-09 Ry

     iteration #  8     ecut=    60.00 Ry     beta= 0.70
     Davidson diagonalization with overlap
     ethr =  4.70E-12,  avg # of iterations =  2.0

     negative rho (up, down):  4.901E-04 0.000E+00

     total cpu time spent up to now is     2274.4 secs

     total energy              =    -176.31988451 Ry
     estimated scf accuracy    <          1.2E-10 Ry

     iteration #  9     ecut=    60.00 Ry     beta= 0.70
     Davidson diagonalization with overlap
     ethr =  3.63E-13,  avg # of iterations =  3.6

     negative rho (up, down):  4.901E-04 0.000E+00

     total cpu time spent up to now is     2281.2 secs

     End of self-consistent calculation

          k = 0.0000 0.0000 0.0000 ( 18047 PWs)   bands (ev):

   -24.6904 -24.2824 -23.4629 -23.1274 -12.0471 -12.0268 -11.9451 -11.8541
   -10.1574  -8.9841  -7.5646  -7.0658  -6.4967  -6.4227  -6.3584  -6.2269

          k =-0.0153 0.2863 0.0000 ( 18132 PWs)   bands (ev):

   -24.5530 -24.1501 -23.6367 -23.2926 -12.2403 -12.1706 -11.7247 -11.5684
    -9.9597  -8.9324  -7.7476  -7.3811  -6.5916  -6.4825  -6.2598  -6.1371

          k = 0.0307-0.5725 0.0000 ( 18166 PWs)   bands (ev):

   -24.3253 -23.9434 -23.8829 -23.5488 -12.3080 -12.2773 -11.5570 -11.3940
    -9.6900  -8.8662  -7.9741  -7.7487  -6.6620  -6.4762  -6.1724  -6.0639

          k = 0.2575-0.1328 0.0000 ( 18109 PWs)   bands (ev):

   -24.5502 -24.1478 -23.6383 -23.2952 -12.2870 -12.1702 -11.6710 -11.6118
    -9.9207  -8.9122  -7.7765  -7.4012  -6.5625  -6.4851  -6.2468  -6.1458

          k = 0.2421 0.1535 0.0000 ( 18132 PWs)   bands (ev):

   -24.5516 -24.1586 -23.6366 -23.2839 -12.0921 -12.0326 -11.9312 -11.7697
    -9.8287  -8.8087  -7.9412  -7.4434  -6.4294  -6.3749  -6.2806  -6.2513

          k = 0.2882-0.7053 0.0000 ( 18147 PWs)   bands (ev):

   -24.3215 -23.9765 -23.8687 -23.5320 -12.2553 -12.2239 -11.6783 -11.5068
    -9.5010  -8.6188  -8.2830  -7.8665  -6.5694  -6.4166  -6.1641  -6.0898

          k = 0.2728-0.4190 0.0000 ( 18128 PWs)   bands (ev):

   -24.3200 -23.9454 -23.8795 -23.5547 -12.3605 -12.2823 -11.5172 -11.4166
    -9.6217  -8.7996  -8.0285  -7.8402  -6.6128  -6.4939  -6.1363  -6.0698

          k =-0.5150 0.2656 0.0000 ( 18184 PWs)   bands (ev):

   -24.3138 -23.9487 -23.8752 -23.5614 -12.3843 -12.2680 -11.5014 -11.4564
    -9.6018  -8.8057  -8.0363  -7.8033  -6.6104  -6.4858  -6.1612  -6.0610

          k =-0.5303 0.5518 0.0000 ( 18128 PWs)   bands (ev):

   -24.3154 -23.9791 -23.8654 -23.5380 -12.3003 -12.2191 -11.6440 -11.5343
    -9.4480  -8.5804  -8.3231  -7.9054  -6.5370  -6.4255  -6.1626  -6.0880

          k =-0.4843-0.3070 0.0000 ( 18166 PWs)   bands (ev):

   -24.3153 -24.0086 -23.8550 -23.5182 -12.1358 -12.0125 -11.9694 -11.6639
    -9.2832  -8.6580  -8.2072  -8.0742  -6.4121  -6.2943  -6.2428  -6.2166

     highest occupied level (ev):    -6.0610

!    total energy              =    -176.31988451 Ry
     estimated scf accuracy    <          3.3E-11 Ry

     convergence has been achieved in   9 iterations

     negative rho (up, down):  4.901E-04 0.000E+00

     Forces acting on atoms (cartesian axes, Ry/au):

     atom    1 type  1   force =     0.00081007   -0.00029486   -0.00043716
     atom    2 type  1   force =    -0.00035154   -0.00007017   -0.00012119
     atom    3 type  1   force =    -0.00313185    0.00090833    0.00024035
     atom    4 type  1   force =    -0.00013528    0.00001312   -0.00051282
     atom    5 type  1   force =    -0.00092517    0.00049333    0.00046039
     atom    6 type  1   force =     0.00026743   -0.00290571   -0.00037445
     atom    7 type  1   force =    -0.00049565    0.00120179    0.00102957
     atom    8 type  1   force =     0.00188964   -0.00146829    0.00025922
     atom    9 type  2   force =     0.00044608    0.00224377   -0.00125476
     atom   10 type  2   force =     0.00067713   -0.00149941    0.00137058
     atom   11 type  2   force =     0.00123384   -0.00071073   -0.00006617
     atom   12 type  2   force =    -0.00028470    0.00208884   -0.00059356

     Total force =     0.006984     Total SCF correction =     0.000006

     Entering Dynamics:    iteration =    31

     <vel(dt)|acc(dt)> =   0.93194535

ATOMIC_POSITIONS (angstrom)
H             4.4225086184        3.6523756203       11.2083024329
H             5.2972458021        4.2591738093       10.0305675487
H             3.3522811971        1.2516890530        8.1003988193
H             3.1684709036        2.9040846624        9.3133806840
H             4.0385485288        3.5107726615        8.1334257172
H             6.3826703493        4.0836514986        8.1151390488
H             2.9627655855        1.7273459531       11.2282845238
H             2.0816227314        3.0917808457       11.2272833042
O             5.2513742444        4.1832193463       11.0263233704
O             3.2132880122        2.9791603216        8.3176069582
O             5.4748860759        4.4651257727        8.2802990459
O             2.9897244022        2.7097272135       11.0586746244



     Writing config-only to output data dir ./output/f-BH.save/
     NEW-OLD atomic charge density approx. for the potential

     negative rho (up, down):  4.882E-04 0.000E+00

     total cpu time spent up to now is     2294.0 secs

     per-process dynamical memory:   210.2 Mb

     Self-consistent Calculation

     iteration #  1     ecut=    60.00 Ry     beta= 0.70
     Davidson diagonalization with overlap
     ethr =  1.00E-06,  avg # of iterations =  5.0

     negative rho (up, down):  4.885E-04 0.000E+00

     total cpu time spent up to now is     2303.2 secs

     total energy              =    -176.31996538 Ry
     estimated scf accuracy    <       0.00018667 Ry

     iteration #  2     ecut=    60.00 Ry     beta= 0.70
     Davidson diagonalization with overlap
     ethr =  5.83E-07,  avg # of iterations =  2.0

     negative rho (up, down):  4.885E-04 0.000E+00

     total cpu time spent up to now is     2308.3 secs

     total energy              =    -176.31998592 Ry
     estimated scf accuracy    <       0.00000835 Ry

     iteration #  3     ecut=    60.00 Ry     beta= 0.70
     Davidson diagonalization with overlap
     ethr =  2.61E-08,  avg # of iterations =  2.7

     negative rho (up, down):  4.885E-04 0.000E+00

     total cpu time spent up to now is     2313.9 secs

     total energy              =    -176.31998748 Ry
     estimated scf accuracy    <       0.00000135 Ry

     iteration #  4     ecut=    60.00 Ry     beta= 0.70
     Davidson diagonalization with overlap
     ethr =  4.21E-09,  avg # of iterations =  2.8

     negative rho (up, down):  4.885E-04 0.000E+00

     total cpu time spent up to now is     2319.6 secs

     total energy              =    -176.31998782 Ry
     estimated scf accuracy    <       0.00000031 Ry

     iteration #  5     ecut=    60.00 Ry     beta= 0.70
     Davidson diagonalization with overlap
     ethr =  9.55E-10,  avg # of iterations =  2.0

     negative rho (up, down):  4.885E-04 0.000E+00

     total cpu time spent up to now is     2325.0 secs

     total energy              =    -176.31998786 Ry
     estimated scf accuracy    <       0.00000001 Ry

     iteration #  6     ecut=    60.00 Ry     beta= 0.70
     Davidson diagonalization with overlap
     ethr =  4.57E-11,  avg # of iterations =  3.6

     negative rho (up, down):  4.885E-04 0.000E+00

     total cpu time spent up to now is     2331.5 secs

     total energy              =    -176.31998787 Ry
     estimated scf accuracy    <          5.5E-09 Ry

     iteration #  7     ecut=    60.00 Ry     beta= 0.70
     Davidson diagonalization with overlap
     ethr =  1.71E-11,  avg # of iterations =  2.0

     negative rho (up, down):  4.885E-04 0.000E+00

     total cpu time spent up to now is     2336.5 secs

     total energy              =    -176.31998787 Ry
     estimated scf accuracy    <          7.2E-10 Ry

     iteration #  8     ecut=    60.00 Ry     beta= 0.70
     Davidson diagonalization with overlap
     ethr =  2.26E-12,  avg # of iterations =  3.0

     negative rho (up, down):  4.885E-04 0.000E+00

     total cpu time spent up to now is     2343.0 secs

     total energy              =    -176.31998787 Ry
     estimated scf accuracy    <          2.7E-10 Ry

     iteration #  9     ecut=    60.00 Ry     beta= 0.70
     Davidson diagonalization with overlap
     ethr =  8.40E-13,  avg # of iterations =  2.0

     negative rho (up, down):  4.885E-04 0.000E+00

     total cpu time spent up to now is     2347.9 secs

     End of self-consistent calculation

          k = 0.0000 0.0000 0.0000 ( 18047 PWs)   bands (ev):

   -24.6912 -24.2796 -23.4635 -23.1234 -12.0481 -12.0174 -11.9501 -11.8527
   -10.1501  -8.9914  -7.5652  -7.0682  -6.4982  -6.4182  -6.3607  -6.2168

          k =-0.0153 0.2863 0.0000 ( 18132 PWs)   bands (ev):

   -24.5538 -24.1476 -23.6368 -23.2888 -12.2344 -12.1655 -11.7273 -11.5769
    -9.9486  -8.9360  -7.7484  -7.3843  -6.5895  -6.4820  -6.2577  -6.1311

          k = 0.0307-0.5725 0.0000 ( 18166 PWs)   bands (ev):

   -24.3260 -23.9522 -23.8711 -23.5457 -12.3041 -12.2672 -11.5643 -11.4064
    -9.6739  -8.8636  -7.9757  -7.7574  -6.6574  -6.4738  -6.1702  -6.0608

          k = 0.2575-0.1328 0.0000 ( 18109 PWs)   bands (ev):

   -24.5507 -24.1452 -23.6388 -23.2917 -12.2785 -12.1649 -11.6745 -11.6201
    -9.9112  -8.9179  -7.7774  -7.4042  -6.5605  -6.4841  -6.2458  -6.1379

          k = 0.2421 0.1535 0.0000 ( 18132 PWs)   bands (ev):

   -24.5537 -24.1579 -23.6345 -23.2783 -12.0939 -12.0321 -11.9288 -11.7722
    -9.8203  -8.8144  -7.9391  -7.4436  -6.4221  -6.3773  -6.2841  -6.2432

          k = 0.2882-0.7053 0.0000 ( 18147 PWs)   bands (ev):

   -24.3249 -23.9852 -23.8568 -23.5255 -12.2547 -12.2165 -11.6838 -11.5161
    -9.4874  -8.6165  -8.2850  -7.8707  -6.5634  -6.4140  -6.1634  -6.0885

          k = 0.2728-0.4190 0.0000 ( 18128 PWs)   bands (ev):

   -24.3198 -23.9551 -23.8672 -23.5522 -12.3521 -12.2745 -11.5253 -11.4282
    -9.6069  -8.7994  -8.0303  -7.8474  -6.6083  -6.4910  -6.1352  -6.0657

          k =-0.5150 0.2656 0.0000 ( 18184 PWs)   bands (ev):

   -24.3127 -23.9589 -23.8629 -23.5594 -12.3740 -12.2604 -11.5087 -11.4677
    -9.5888  -8.8090  -8.0383  -7.8093  -6.6059  -6.4834  -6.1586  -6.0564

          k =-0.5303 0.5518 0.0000 ( 18128 PWs)   bands (ev):

   -24.3181 -23.9878 -23.8540 -23.5319 -12.2948 -12.2140 -11.6514 -11.5422
    -9.4361  -8.5817  -8.3247  -7.9078  -6.5310  -6.4229  -6.1620  -6.0856

          k =-0.4843-0.3070 0.0000 ( 18166 PWs)   bands (ev):

   -24.3218 -24.0167 -23.8430 -23.5086 -12.1374 -12.0177 -11.9651 -11.6691
    -9.2735  -8.6651  -8.1956  -8.0770  -6.4012  -6.2888  -6.2469  -6.2207

     highest occupied level (ev):    -6.0564

!    total energy              =    -176.31998787 Ry
     estimated scf accuracy    <          5.0E-11 Ry

     convergence has been achieved in   9 iterations

     negative rho (up, down):  4.885E-04 0.000E+00

     Forces acting on atoms (cartesian axes, Ry/au):

     atom    1 type  1   force =     0.00270293    0.00090002   -0.00096340
     atom    2 type  1   force =    -0.00026732    0.00039456   -0.00156616
     atom    3 type  1   force =    -0.00300034   -0.00106020    0.00087046
     atom    4 type  1   force =     0.00001186   -0.00010434    0.00186921
     atom    5 type  1   force =    -0.00096550    0.00064253    0.00065856
     atom    6 type  1   force =    -0.00053311   -0.00213847   -0.00060706
     atom    7 type  1   force =    -0.00017523    0.00079438    0.00108149
     atom    8 type  1   force =     0.00061834   -0.00050413    0.00065601
     atom    9 type  2   force =    -0.00238831    0.00058844    0.00075122
     atom   10 type  2   force =     0.00164729   -0.00054326   -0.00176853
     atom   11 type  2   force =     0.00108182   -0.00034160   -0.00021018
     atom   12 type  2   force =     0.00126756    0.00137207   -0.00077163

     Total force =     0.007361     Total SCF correction =     0.000006

     Entering Dynamics:    iteration =    32

     <vel(dt)|acc(dt)> =   0.95937806

ATOMIC_POSITIONS (angstrom)
H             4.4349866210        3.6619100239       11.2076642537
H             5.3015791528        4.2614301854       10.0214697816
H             3.3478813993        1.2463474714        8.0965856325
H             3.1623511199        2.8992748088        9.3230335058
H             4.0265039711        3.4998362444        8.1365887741
H             6.3800913639        4.0714718972        8.1138818090
H             2.9649439339        1.7368491948       11.2310353972
H             2.0862126732        3.1014256117       11.2274793758
O             5.2586237822        4.1961932313       11.0195738803
O             3.2059245993        2.9633162591        8.3264525747
O             5.4732226000        4.4582633325        8.2740163379
O             2.9930652341        2.7217884975       11.0619047553



     Writing config-only to output data dir ./output/f-BH.save/
     NEW-OLD atomic charge density approx. for the potential

     negative rho (up, down):  4.865E-04 0.000E+00

     total cpu time spent up to now is     2360.6 secs

     per-process dynamical memory:   210.2 Mb

     Self-consistent Calculation

     iteration #  1     ecut=    60.00 Ry     beta= 0.70
     Davidson diagonalization with overlap
     ethr =  1.00E-06,  avg # of iterations =  6.0

     negative rho (up, down):  4.875E-04 0.000E+00

     total cpu time spent up to now is     2371.0 secs

     total energy              =    -176.32007591 Ry
     estimated scf accuracy    <       0.00045750 Ry

     iteration #  2     ecut=    60.00 Ry     beta= 0.70
     Davidson diagonalization with overlap
     ethr =  1.43E-06,  avg # of iterations =  2.0

     negative rho (up, down):  4.876E-04 0.000E+00

     total cpu time spent up to now is     2376.2 secs

     total energy              =    -176.32012910 Ry
     estimated scf accuracy    <       0.00001925 Ry

     iteration #  3     ecut=    60.00 Ry     beta= 0.70
     Davidson diagonalization with overlap
     ethr =  6.02E-08,  avg # of iterations =  2.0

     negative rho (up, down):  4.877E-04 0.000E+00

     total cpu time spent up to now is     2381.5 secs

     total energy              =    -176.32013175 Ry
     estimated scf accuracy    <       0.00000190 Ry

     iteration #  4     ecut=    60.00 Ry     beta= 0.70
     Davidson diagonalization with overlap
     ethr =  5.93E-09,  avg # of iterations =  3.1

     negative rho (up, down):  4.877E-04 0.000E+00

     total cpu time spent up to now is     2387.6 secs

     total energy              =    -176.32013222 Ry
     estimated scf accuracy    <       0.00000054 Ry

     iteration #  5     ecut=    60.00 Ry     beta= 0.70
     Davidson diagonalization with overlap
     ethr =  1.70E-09,  avg # of iterations =  2.6

     negative rho (up, down):  4.877E-04 0.000E+00

     total cpu time spent up to now is     2393.2 secs

     total energy              =    -176.32013233 Ry
     estimated scf accuracy    <       0.00000001 Ry

     iteration #  6     ecut=    60.00 Ry     beta= 0.70
     Davidson diagonalization with overlap
     ethr =  3.46E-11,  avg # of iterations =  4.0

     negative rho (up, down):  4.877E-04 0.000E+00

     total cpu time spent up to now is     2400.0 secs

     total energy              =    -176.32013233 Ry
     estimated scf accuracy    <          6.8E-09 Ry

     iteration #  7     ecut=    60.00 Ry     beta= 0.70
     Davidson diagonalization with overlap
     ethr =  2.14E-11,  avg # of iterations =  2.1

     negative rho (up, down):  4.877E-04 0.000E+00

     total cpu time spent up to now is     2405.6 secs

     total energy              =    -176.32013234 Ry
     estimated scf accuracy    <          5.5E-10 Ry

     iteration #  8     ecut=    60.00 Ry     beta= 0.70
     Davidson diagonalization with overlap
     ethr =  1.72E-12,  avg # of iterations =  3.1

     negative rho (up, down):  4.877E-04 0.000E+00

     total cpu time spent up to now is     2412.4 secs

     total energy              =    -176.32013234 Ry
     estimated scf accuracy    <          4.9E-10 Ry

     iteration #  9     ecut=    60.00 Ry     beta= 0.70
     Davidson diagonalization with overlap
     ethr =  1.52E-12,  avg # of iterations =  2.0

     negative rho (up, down):  4.877E-04 0.000E+00

     total cpu time spent up to now is     2417.6 secs

     End of self-consistent calculation

          k = 0.0000 0.0000 0.0000 ( 18047 PWs)   bands (ev):

   -24.6877 -24.2695 -23.4607 -23.1121 -12.0470 -11.9967 -11.9463 -11.8538
   -10.1409  -8.9926  -7.5676  -7.0654  -6.4943  -6.4119  -6.3581  -6.1997

          k =-0.0153 0.2863 0.0000 ( 18132 PWs)   bands (ev):

   -24.5504 -24.1382 -23.6329 -23.2776 -12.2238 -12.1573 -11.7226 -11.5842
    -9.9301  -8.9290  -7.7573  -7.3897  -6.5844  -6.4743  -6.2474  -6.1174

          k = 0.0307-0.5725 0.0000 ( 18166 PWs)   bands (ev):

   -24.3228 -23.9560 -23.8530 -23.5352 -12.2957 -12.2552 -11.5655 -11.4184
    -9.6415  -8.8421  -7.9913  -7.7796  -6.6483  -6.4643  -6.1587  -6.0482

          k = 0.2575-0.1328 0.0000 ( 18109 PWs)   bands (ev):

   -24.5471 -24.1358 -23.6353 -23.2804 -12.2598 -12.1556 -11.6737 -11.6288
    -9.9016  -8.9191  -7.7739  -7.3968  -6.5559  -6.4824  -6.2425  -6.1227

          k = 0.2421 0.1535 0.0000 ( 18132 PWs)   bands (ev):

   -24.5517 -24.1504 -23.6284 -23.2650 -12.0915 -12.0239 -11.9288 -11.7651
    -9.8101  -8.8155  -7.9366  -7.4378  -6.4124  -6.3749  -6.2833  -6.2290

          k = 0.2882-0.7053 0.0000 ( 18147 PWs)   bands (ev):

   -24.3249 -23.9876 -23.8401 -23.5108 -12.2465 -12.2099 -11.6850 -11.5206
    -9.4636  -8.5992  -8.2956  -7.8802  -6.5532  -6.4073  -6.1556  -6.0798

          k = 0.2728-0.4190 0.0000 ( 18128 PWs)   bands (ev):

   -24.3159 -23.9596 -23.8494 -23.5415 -12.3350 -12.2645 -11.5297 -11.4398
    -9.5859  -8.7884  -8.0343  -7.8528  -6.6018  -6.4840  -6.1290  -6.0536

          k =-0.5150 0.2656 0.0000 ( 18184 PWs)   bands (ev):

   -24.3080 -23.9636 -23.8459 -23.5487 -12.3525 -12.2487 -11.5168 -11.4772
    -9.5801  -8.8103  -8.0313  -7.7973  -6.6006  -6.4803  -6.1541  -6.0460

          k =-0.5303 0.5518 0.0000 ( 18128 PWs)   bands (ev):

   -24.3175 -23.9902 -23.8384 -23.5169 -12.2787 -12.2075 -11.6581 -11.5452
    -9.4266  -8.5829  -8.3191  -7.8961  -6.5230  -6.4182  -6.1579  -6.0777

          k =-0.4843-0.3070 0.0000 ( 18166 PWs)   bands (ev):

   -24.3252 -24.0179 -23.8270 -23.4900 -12.1345 -12.0163 -11.9636 -11.6639
    -9.2619  -8.6767  -8.1730  -8.0742  -6.3864  -6.2797  -6.2467  -6.2199

     highest occupied level (ev):    -6.0460

!    total energy              =    -176.32013234 Ry
     estimated scf accuracy    <          4.2E-11 Ry

     convergence has been achieved in   9 iterations

     negative rho (up, down):  4.877E-04 0.000E+00

     Forces acting on atoms (cartesian axes, Ry/au):

     atom    1 type  1   force =     0.00112009    0.00080387   -0.00069676
     atom    2 type  1   force =    -0.00023284    0.00101966   -0.00024925
     atom    3 type  1   force =    -0.00180235   -0.00233529    0.00134489
     atom    4 type  1   force =     0.00010258   -0.00056865    0.00279639
     atom    5 type  1   force =    -0.00071977    0.00014633    0.00058863
     atom    6 type  1   force =    -0.00115144   -0.00075056   -0.00083580
     atom    7 type  1   force =     0.00035464    0.00389908   -0.00004871
     atom    8 type  1   force =    -0.00244244    0.00160306    0.00131900
     atom    9 type  2   force =    -0.00183883    0.00053498   -0.00053977
     atom   10 type  2   force =     0.00240067    0.00128193   -0.00345001
     atom   11 type  2   force =    -0.00030696   -0.00123045    0.00005869
     atom   12 type  2   force =     0.00451666   -0.00440396   -0.00028730

     Total force =     0.010772     Total SCF correction =     0.000006

     Entering Dynamics:    iteration =    33

     <vel(dt)|acc(dt)> =   0.96399732

ATOMIC_POSITIONS (angstrom)
H             4.4521263565        3.6698455692       11.2057361395
H             5.3062063870        4.2646135839       10.0098445986
H             3.3402677883        1.2355265825        8.0959388066
H             3.1561698584        2.8970163418        9.3349279260
H             4.0114463361        3.4919312317        8.1403823432
H             6.3751942367        4.0539215139        8.1086646175
H             2.9658225452        1.7499448100       11.2363572604
H             2.0923657939        3.1163901333       11.2301197089
O             5.2658452979        4.2161405662       11.0080864228
O             3.2002331842        2.9447118196        8.3357996900
O             5.4705561107        4.4455553849        8.2687607838
O             2.9991525557        2.7325092210       11.0650677805



     Writing config-only to output data dir ./output/f-BH.save/
     NEW-OLD atomic charge density approx. for the potential

     negative rho (up, down):  4.842E-04 0.000E+00

     total cpu time spent up to now is     2430.6 secs

     per-process dynamical memory:   210.2 Mb

     Self-consistent Calculation

     iteration #  1     ecut=    60.00 Ry     beta= 0.70
     Davidson diagonalization with overlap
     ethr =  1.00E-06,  avg # of iterations =  6.0

     negative rho (up, down):  4.858E-04 0.000E+00

     total cpu time spent up to now is     2441.7 secs

     total energy              =    -176.32015499 Ry
     estimated scf accuracy    <       0.00071898 Ry

     iteration #  2     ecut=    60.00 Ry     beta= 0.70
     Davidson diagonalization with overlap
     ethr =  2.25E-06,  avg # of iterations =  2.0

     negative rho (up, down):  4.860E-04 0.000E+00

     total cpu time spent up to now is     2446.9 secs

     total energy              =    -176.32024154 Ry
     estimated scf accuracy    <       0.00003213 Ry

     iteration #  3     ecut=    60.00 Ry     beta= 0.70
     Davidson diagonalization with overlap
     ethr =  1.00E-07,  avg # of iterations =  2.0

     negative rho (up, down):  4.862E-04 0.000E+00

     total cpu time spent up to now is     2452.3 secs

     total energy              =    -176.32024628 Ry
     estimated scf accuracy    <       0.00000335 Ry

     iteration #  4     ecut=    60.00 Ry     beta= 0.70
     Davidson diagonalization with overlap
     ethr =  1.05E-08,  avg # of iterations =  2.8

     negative rho (up, down):  4.862E-04 0.000E+00

     total cpu time spent up to now is     2458.3 secs

     total energy              =    -176.32024704 Ry
     estimated scf accuracy    <       0.00000073 Ry

     iteration #  5     ecut=    60.00 Ry     beta= 0.70
     Davidson diagonalization with overlap
     ethr =  2.27E-09,  avg # of iterations =  2.5

     negative rho (up, down):  4.862E-04 0.000E+00

     total cpu time spent up to now is     2463.8 secs

     total energy              =    -176.32024719 Ry
     estimated scf accuracy    <       0.00000002 Ry

     iteration #  6     ecut=    60.00 Ry     beta= 0.70
     Davidson diagonalization with overlap
     ethr =  7.06E-11,  avg # of iterations =  3.0

     negative rho (up, down):  4.862E-04 0.000E+00

     total cpu time spent up to now is     2469.7 secs

     total energy              =    -176.32024720 Ry
     estimated scf accuracy    <          5.3E-09 Ry

     iteration #  7     ecut=    60.00 Ry     beta= 0.70
     Davidson diagonalization with overlap
     ethr =  1.64E-11,  avg # of iterations =  2.8

     negative rho (up, down):  4.862E-04 0.000E+00

     total cpu time spent up to now is     2475.4 secs

     total energy              =    -176.32024720 Ry
     estimated scf accuracy    <          3.8E-10 Ry

     iteration #  8     ecut=    60.00 Ry     beta= 0.70
     Davidson diagonalization with overlap
     ethr =  1.17E-12,  avg # of iterations =  3.4

     negative rho (up, down):  4.862E-04 0.000E+00

     total cpu time spent up to now is     2481.8 secs

     total energy              =    -176.32024720 Ry
     estimated scf accuracy    <          2.9E-10 Ry

     iteration #  9     ecut=    60.00 Ry     beta= 0.70
     Davidson diagonalization with overlap
     ethr =  9.10E-13,  avg # of iterations =  2.0

     negative rho (up, down):  4.862E-04 0.000E+00

     total cpu time spent up to now is     2486.8 secs

     End of self-consistent calculation

          k = 0.0000 0.0000 0.0000 ( 18047 PWs)   bands (ev):

   -24.6787 -24.2498 -23.4566 -23.0939 -12.0446 -11.9723 -11.9306 -11.8457
   -10.1315  -8.9888  -7.5671  -7.0520  -6.4799  -6.4022  -6.3468  -6.1786

          k =-0.0153 0.2863 0.0000 ( 18132 PWs)   bands (ev):

   -24.5412 -24.1184 -23.6283 -23.2599 -12.2016 -12.1397 -11.7192 -11.5883
    -9.9093  -8.9133  -7.7664  -7.3882  -6.5761  -6.4555  -6.2281  -6.0956

          k = 0.0307-0.5725 0.0000 ( 18166 PWs)   bands (ev):

   -24.3120 -23.9477 -23.8362 -23.5197 -12.2686 -12.2378 -11.5708 -11.4308
    -9.6038  -8.8052  -8.0091  -7.8023  -6.6358  -6.4458  -6.1374  -6.0236

          k = 0.2575-0.1328 0.0000 ( 18109 PWs)   bands (ev):

   -24.5385 -24.1168 -23.6301 -23.2615 -12.2354 -12.1408 -11.6695 -11.6319
    -9.8917  -8.9155  -7.7608  -7.3727  -6.5466  -6.4775  -6.2346  -6.1008

          k = 0.2421 0.1535 0.0000 ( 18132 PWs)   bands (ev):

   -24.5442 -24.1324 -23.6218 -23.2450 -12.0887 -12.0076 -11.9262 -11.7445
    -9.7989  -8.8110  -7.9299  -7.4218  -6.4016  -6.3630  -6.2716  -6.2111

          k = 0.2882-0.7053 0.0000 ( 18147 PWs)   bands (ev):

   -24.3178 -23.9765 -23.8263 -23.4904 -12.2269 -12.1965 -11.6879 -11.5200
    -9.4365  -8.5699  -8.3039  -7.8860  -6.5402  -6.3937  -6.1401  -6.0600

          k = 0.2728-0.4190 0.0000 ( 18128 PWs)   bands (ev):

   -24.3064 -23.9515 -23.8331 -23.5236 -12.3083 -12.2464 -11.5367 -11.4496
    -9.5638  -8.7684  -8.0321  -7.8444  -6.5940  -6.4706  -6.1161  -6.0315

          k =-0.5150 0.2656 0.0000 ( 18184 PWs)   bands (ev):

   -24.2999 -23.9557 -23.8301 -23.5281 -12.3253 -12.2314 -11.5269 -11.4815
    -9.5740  -8.8084  -8.0087  -7.7597  -6.5935  -6.4757  -6.1460  -6.0282

          k =-0.5303 0.5518 0.0000 ( 18128 PWs)   bands (ev):

   -24.3118 -23.9794 -23.8249 -23.4941 -12.2581 -12.1953 -11.6643 -11.5400
    -9.4188  -8.5823  -8.3005  -7.8656  -6.5138  -6.4091  -6.1480  -6.0614

          k =-0.4843-0.3070 0.0000 ( 18166 PWs)   bands (ev):

   -24.3218 -24.0055 -23.8140 -23.4655 -12.1316 -12.0034 -11.9626 -11.6462
    -9.2499  -8.6813  -8.1486  -8.0578  -6.3723  -6.2661  -6.2372  -6.2080

     highest occupied level (ev):    -6.0236

!    total energy              =    -176.32024720 Ry
     estimated scf accuracy    <          2.5E-11 Ry

     convergence has been achieved in   9 iterations

     negative rho (up, down):  4.862E-04 0.000E+00

     Forces acting on atoms (cartesian axes, Ry/au):

     atom    1 type  1   force =     0.00125982    0.00241008   -0.00106507
     atom    2 type  1   force =     0.00002258    0.00198555   -0.00251530
     atom    3 type  1   force =     0.00007891   -0.00346209    0.00155776
     atom    4 type  1   force =     0.00028354   -0.00147691    0.00124279
     atom    5 type  1   force =     0.00078822   -0.00062361    0.00011511
     atom    6 type  1   force =    -0.00104446    0.00046421   -0.00081300
     atom    7 type  1   force =     0.00085973    0.00080093   -0.00064106
     atom    8 type  1   force =    -0.00018819    0.00153311    0.00053713
     atom    9 type  2   force =    -0.00283476   -0.00284536    0.00333434
     atom   10 type  2   force =     0.00139897    0.00282480   -0.00242948
     atom   11 type  2   force =    -0.00265598   -0.00115612   -0.00006773
     atom   12 type  2   force =     0.00203160   -0.00045458    0.00074449

     Total force =     0.010043     Total SCF correction =     0.000006

     Entering Dynamics:    iteration =    34

     <vel(dt)|acc(dt)> =   0.69913148

ATOMIC_POSITIONS (angstrom)
H             4.4644498775        3.6753479993       11.2018485701
H             5.3091052169        4.2716013335        9.9968089481
H             3.3412291735        1.2161212040        8.1035136487
H             3.1548410929        2.8969688738        9.3411762549
H             4.0065030836        3.4909449653        8.1407350267
H             6.3676408453        4.0461388733        8.1001501955
H             2.9653959275        1.7543620197       11.2383426501
H             2.0986443942        3.1336294628       11.2339259270
O             5.2635472239        4.2206933903       11.0077584816
O             3.2006819511        2.9448269117        8.3367021085
O             5.4591411089        4.4306588084        8.2684127785
O             3.0042065555        2.7368129159       11.0703114881



     Writing config-only to output data dir ./output/f-BH.save/
     NEW-OLD atomic charge density approx. for the potential

     negative rho (up, down):  4.837E-04 0.000E+00

     total cpu time spent up to now is     2499.8 secs

     per-process dynamical memory:   210.2 Mb

     Self-consistent Calculation

     iteration #  1     ecut=    60.00 Ry     beta= 0.70
     Davidson diagonalization with overlap
     ethr =  1.00E-06,  avg # of iterations =  5.0

     negative rho (up, down):  4.837E-04 0.000E+00

     total cpu time spent up to now is     2508.8 secs

     total energy              =    -176.31989236 Ry
     estimated scf accuracy    <       0.00034809 Ry

     iteration #  2     ecut=    60.00 Ry     beta= 0.70
     Davidson diagonalization with overlap
     ethr =  1.09E-06,  avg # of iterations =  2.4

     negative rho (up, down):  4.840E-04 0.000E+00

     total cpu time spent up to now is     2514.2 secs

     total energy              =    -176.31994623 Ry
     estimated scf accuracy    <       0.00007998 Ry

     iteration #  3     ecut=    60.00 Ry     beta= 0.70
     Davidson diagonalization with overlap
     ethr =  2.50E-07,  avg # of iterations =  2.4

     negative rho (up, down):  4.842E-04 0.000E+00

     total cpu time spent up to now is     2520.1 secs

     total energy              =    -176.31996627 Ry
     estimated scf accuracy    <       0.00001084 Ry

     iteration #  4     ecut=    60.00 Ry     beta= 0.70
     Davidson diagonalization with overlap
     ethr =  3.39E-08,  avg # of iterations =  2.1

     negative rho (up, down):  4.842E-04 0.000E+00

     total cpu time spent up to now is     2525.1 secs

     total energy              =    -176.31996752 Ry
     estimated scf accuracy    <       0.00000055 Ry

     iteration #  5     ecut=    60.00 Ry     beta= 0.70
     Davidson diagonalization with overlap
     ethr =  1.73E-09,  avg # of iterations =  3.4

     negative rho (up, down):  4.842E-04 0.000E+00

     total cpu time spent up to now is     2531.5 secs

     total energy              =    -176.31996772 Ry
     estimated scf accuracy    <       0.00000022 Ry

     iteration #  6     ecut=    60.00 Ry     beta= 0.70
     Davidson diagonalization with overlap
     ethr =  6.77E-10,  avg # of iterations =  2.1

     negative rho (up, down):  4.842E-04 0.000E+00

     total cpu time spent up to now is     2536.9 secs

     total energy              =    -176.31996776 Ry
     estimated scf accuracy    <       0.00000002 Ry

     iteration #  7     ecut=    60.00 Ry     beta= 0.70
     Davidson diagonalization with overlap
     ethr =  5.93E-11,  avg # of iterations =  3.5

     negative rho (up, down):  4.842E-04 0.000E+00

     total cpu time spent up to now is     2543.4 secs

     total energy              =    -176.31996776 Ry
     estimated scf accuracy    <       0.00000001 Ry

     iteration #  8     ecut=    60.00 Ry     beta= 0.70
     Davidson diagonalization with overlap
     ethr =  3.56E-11,  avg # of iterations =  2.8

     negative rho (up, down):  4.842E-04 0.000E+00

     total cpu time spent up to now is     2549.0 secs

     total energy              =    -176.31996776 Ry
     estimated scf accuracy    <          2.3E-10 Ry

     iteration #  9     ecut=    60.00 Ry     beta= 0.70
     Davidson diagonalization with overlap
     ethr =  7.24E-13,  avg # of iterations =  3.1

     negative rho (up, down):  4.842E-04 0.000E+00

     total cpu time spent up to now is     2555.3 secs

     total energy              =    -176.31996776 Ry
     estimated scf accuracy    <          1.8E-10 Ry

     iteration # 10     ecut=    60.00 Ry     beta= 0.70
     Davidson diagonalization with overlap
     ethr =  5.48E-13,  avg # of iterations =  2.2

     negative rho (up, down):  4.842E-04 0.000E+00

     total cpu time spent up to now is     2560.3 secs

     End of self-consistent calculation

          k = 0.0000 0.0000 0.0000 ( 18047 PWs)   bands (ev):

   -24.6767 -24.2481 -23.4640 -23.1010 -12.0362 -11.9789 -11.9358 -11.8421
   -10.1387  -8.9695  -7.5819  -7.0526  -6.4734  -6.4198  -6.3412  -6.1893

          k =-0.0153 0.2863 0.0000 ( 18132 PWs)   bands (ev):

   -24.5401 -24.1164 -23.6358 -23.2651 -12.2046 -12.1494 -11.7105 -11.5832
    -9.9220  -8.9042  -7.7748  -7.3853  -6.5785  -6.4517  -6.2301  -6.1064

          k = 0.0307-0.5725 0.0000 ( 18166 PWs)   bands (ev):

   -24.3132 -23.9235 -23.8673 -23.5202 -12.2706 -12.2531 -11.5595 -11.4218
    -9.6270  -8.8139  -8.0062  -7.7850  -6.6374  -6.4447  -6.1393  -6.0325

          k = 0.2575-0.1328 0.0000 ( 18109 PWs)   bands (ev):

   -24.5373 -24.1141 -23.6378 -23.2676 -12.2462 -12.1579 -11.6559 -11.6191
    -9.8976  -8.9000  -7.7699  -7.3706  -6.5508  -6.4762  -6.2374  -6.1169

          k = 0.2421 0.1535 0.0000 ( 18132 PWs)   bands (ev):

   -24.5401 -24.1255 -23.6343 -23.2554 -12.0793 -12.0108 -11.9186 -11.7491
    -9.8066  -8.7945  -7.9471  -7.4251  -6.4201  -6.3521  -6.2645  -6.2268

          k = 0.2882-0.7053 0.0000 ( 18147 PWs)   bands (ev):

   -24.3127 -23.9520 -23.8561 -23.5009 -12.2198 -12.2087 -11.6773 -11.5143
    -9.4538  -8.5729  -8.3071  -7.8780  -6.5433  -6.3984  -6.1393  -6.0677

          k = 0.2728-0.4190 0.0000 ( 18128 PWs)   bands (ev):

   -24.3075 -23.9273 -23.8628 -23.5257 -12.3189 -12.2638 -11.5215 -11.4362
    -9.5786  -8.7694  -8.0307  -7.8328  -6.6004  -6.4675  -6.1167  -6.0463

          k =-0.5150 0.2656 0.0000 ( 18184 PWs)   bands (ev):

   -24.3008 -23.9322 -23.8576 -23.5320 -12.3414 -12.2535 -11.5122 -11.4607
    -9.5807  -8.7997  -8.0088  -7.7530  -6.6027  -6.4714  -6.1515  -6.0456

          k =-0.5303 0.5518 0.0000 ( 18128 PWs)   bands (ev):

   -24.3064 -23.9550 -23.8533 -23.5064 -12.2647 -12.2065 -11.6503 -11.5275
    -9.4265  -8.5725  -8.3095  -7.8645  -6.5212  -6.4113  -6.1474  -6.0753

          k =-0.4843-0.3070 0.0000 ( 18166 PWs)   bands (ev):

   -24.3105 -23.9802 -23.8444 -23.4847 -12.1225 -12.0007 -11.9561 -11.6461
    -9.2545  -8.6707  -8.1759  -8.0576  -6.3828  -6.2908  -6.2229  -6.2026

     highest occupied level (ev):    -6.0325

!    total energy              =    -176.31996776 Ry
     estimated scf accuracy    <          1.4E-11 Ry

     convergence has been achieved in  10 iterations

     negative rho (up, down):  4.842E-04 0.000E+00

     Forces acting on atoms (cartesian axes, Ry/au):

     atom    1 type  1   force =    -0.01442105   -0.00804392    0.00279388
     atom    2 type  1   force =    -0.00150030   -0.00013552    0.01473383
     atom    3 type  1   force =    -0.00255846    0.00483532   -0.00021983
     atom    4 type  1   force =     0.00098575   -0.00063735   -0.00560290
     atom    5 type  1   force =     0.00606879    0.00257944   -0.00080820
     atom    6 type  1   force =    -0.00311163   -0.00166956    0.00119837
     atom    7 type  1   force =    -0.00053372    0.00063087    0.00001020
     atom    8 type  1   force =     0.00394272   -0.00280709   -0.00017798
     atom    9 type  2   force =     0.01619502    0.00994209   -0.01812789
     atom   10 type  2   force =    -0.00670853   -0.00297719    0.00598751
     atom   11 type  2   force =     0.00432392   -0.00502207    0.00031629
     atom   12 type  2   force =    -0.00268252    0.00330499   -0.00010329

     Total force =     0.038553     Total SCF correction =     0.000004

     Entering Dynamics:    iteration =    35

     <vel(dt)|acc(dt)> =  -0.59445883

ATOMIC_POSITIONS (angstrom)
H             4.4612170764        3.6747580358       11.2023172617
H             5.3085902517        4.2717772323        9.9999521970
H             3.3400765330        1.2176862375        8.1030797406
H             3.1550689936        2.8957730658        9.3407346065
H             4.0081165026        3.4907039103        8.1408467909
H             6.3671929695        4.0463617489        8.1011281522
H             2.9659323601        1.7549700473       11.2379280924
H             2.0985946490        3.1319198942       11.2337320898
O             5.2659137870        4.2213523154       11.0053633468
O             3.1997835097        2.9448773334        8.3364835978
O             5.4604389241        4.4307332521        8.2680863454
O             3.0044608942        2.7371936851       11.0700338568



     Writing config-only to output data dir ./output/f-BH.save/
     NEW-OLD atomic charge density approx. for the potential

     negative rho (up, down):  4.845E-04 0.000E+00

     total cpu time spent up to now is     2573.1 secs

     per-process dynamical memory:   210.2 Mb

     Self-consistent Calculation

     iteration #  1     ecut=    60.00 Ry     beta= 0.70
     Davidson diagonalization with overlap
     ethr =  1.00E-06,  avg # of iterations =  3.0

     Threshold (ethr) on eigenvalues was too large:
     Diagonalizing with lowered threshold

     Davidson diagonalization with overlap
     ethr =  7.79E-08,  avg # of iterations =  1.7

     negative rho (up, down):  4.846E-04 0.000E+00

     total cpu time spent up to now is     2583.6 secs

     total energy              =    -176.32028578 Ry
     estimated scf accuracy    <       0.00002700 Ry

     iteration #  2     ecut=    60.00 Ry     beta= 0.70
     Davidson diagonalization with overlap
     ethr =  8.44E-08,  avg # of iterations =  2.0

     negative rho (up, down):  4.846E-04 0.000E+00

     total cpu time spent up to now is     2589.0 secs

     total energy              =    -176.32029164 Ry
     estimated scf accuracy    <       0.00000380 Ry

     iteration #  3     ecut=    60.00 Ry     beta= 0.70
     Davidson diagonalization with overlap
     ethr =  1.19E-08,  avg # of iterations =  2.0

     negative rho (up, down):  4.845E-04 0.000E+00

     total cpu time spent up to now is     2594.6 secs

     total energy              =    -176.32029248 Ry
     estimated scf accuracy    <       0.00000032 Ry

     iteration #  4     ecut=    60.00 Ry     beta= 0.70
     Davidson diagonalization with overlap
     ethr =  1.01E-09,  avg # of iterations =  2.0

     negative rho (up, down):  4.845E-04 0.000E+00

     total cpu time spent up to now is     2599.8 secs

     total energy              =    -176.32029252 Ry
     estimated scf accuracy    <       0.00000002 Ry

     iteration #  5     ecut=    60.00 Ry     beta= 0.70
     Davidson diagonalization with overlap
     ethr =  5.48E-11,  avg # of iterations =  2.1

     negative rho (up, down):  4.845E-04 0.000E+00

     total cpu time spent up to now is     2605.5 secs

     total energy              =    -176.32029253 Ry
     estimated scf accuracy    <          2.9E-09 Ry

     iteration #  6     ecut=    60.00 Ry     beta= 0.70
     Davidson diagonalization with overlap
     ethr =  9.10E-12,  avg # of iterations =  2.2

     negative rho (up, down):  4.845E-04 0.000E+00

     total cpu time spent up to now is     2611.1 secs

     total energy              =    -176.32029253 Ry
     estimated scf accuracy    <          2.8E-10 Ry

     iteration #  7     ecut=    60.00 Ry     beta= 0.70
     Davidson diagonalization with overlap
     ethr =  8.64E-13,  avg # of iterations =  2.7

     negative rho (up, down):  4.846E-04 0.000E+00

     total cpu time spent up to now is     2616.8 secs

     End of self-consistent calculation

          k = 0.0000 0.0000 0.0000 ( 18047 PWs)   bands (ev):

   -24.6748 -24.2459 -23.4615 -23.0993 -12.0405 -11.9719 -11.9281 -11.8442
   -10.1385  -8.9772  -7.5760  -7.0516  -6.4713  -6.4170  -6.3389  -6.1909

          k =-0.0153 0.2863 0.0000 ( 18132 PWs)   bands (ev):

   -24.5380 -24.1138 -23.6337 -23.2639 -12.2011 -12.1423 -11.7113 -11.5866
    -9.9210  -8.9110  -7.7682  -7.3822  -6.5751  -6.4535  -6.2279  -6.1071

          k = 0.0307-0.5725 0.0000 ( 18166 PWs)   bands (ev):

   -24.3105 -23.9188 -23.8665 -23.5203 -12.2674 -12.2435 -11.5622 -11.4275
    -9.6255  -8.8193  -7.9999  -7.7804  -6.6340  -6.4473  -6.1365  -6.0339

          k = 0.2575-0.1328 0.0000 ( 18109 PWs)   bands (ev):

   -24.5349 -24.1113 -23.6360 -23.2665 -12.2387 -12.1507 -11.6603 -11.6224
    -9.8975  -8.9060  -7.7642  -7.3689  -6.5483  -6.4760  -6.2341  -6.1176

          k = 0.2421 0.1535 0.0000 ( 18132 PWs)   bands (ev):

   -24.5385 -24.1234 -23.6317 -23.2533 -12.0836 -12.0049 -11.9216 -11.7421
    -9.8054  -8.8002  -7.9409  -7.4246  -6.4165  -6.3509  -6.2623  -6.2282

          k = 0.2882-0.7053 0.0000 ( 18147 PWs)   bands (ev):

   -24.3111 -23.9472 -23.8559 -23.4992 -12.2213 -12.2005 -11.6799 -11.5150
    -9.4521  -8.5776  -8.3003  -7.8759  -6.5398  -6.3999  -6.1362  -6.0684

          k = 0.2728-0.4190 0.0000 ( 18128 PWs)   bands (ev):

   -24.3042 -23.9231 -23.8618 -23.5262 -12.3113 -12.2558 -11.5261 -11.4422
    -9.5781  -8.7736  -8.0250  -7.8298  -6.5967  -6.4697  -6.1122  -6.0484

          k =-0.5150 0.2656 0.0000 ( 18184 PWs)   bands (ev):

   -24.2970 -23.9287 -23.8562 -23.5330 -12.3317 -12.2446 -11.5198 -11.4661
    -9.5809  -8.8028  -8.0038  -7.7520  -6.6000  -6.4719  -6.1475  -6.0460

          k =-0.5303 0.5518 0.0000 ( 18128 PWs)   bands (ev):

   -24.3043 -23.9503 -23.8532 -23.5051 -12.2591 -12.2017 -11.6558 -11.5284
    -9.4259  -8.5756  -8.3031  -7.8645  -6.5180  -6.4120  -6.1440  -6.0754

          k =-0.4843-0.3070 0.0000 ( 18166 PWs)   bands (ev):

   -24.3100 -23.9756 -23.8441 -23.4814 -12.1266 -11.9966 -11.9596 -11.6397
    -9.2548  -8.6658  -8.1728  -8.0599  -6.3774  -6.2939  -6.2239  -6.1985

     highest occupied level (ev):    -6.0339

!    total energy              =    -176.32029253 Ry
     estimated scf accuracy    <          6.8E-11 Ry

     convergence has been achieved in   7 iterations

     negative rho (up, down):  4.846E-04 0.000E+00

     Forces acting on atoms (cartesian axes, Ry/au):

     atom    1 type  1   force =    -0.00725588   -0.00327925    0.00087275
     atom    2 type  1   force =    -0.00093265    0.00019301    0.00741008
     atom    3 type  1   force =    -0.00218927    0.00268193   -0.00000917
     atom    4 type  1   force =     0.00087886   -0.00047305   -0.00571052
     atom    5 type  1   force =     0.00405415    0.00128313   -0.00036075
     atom    6 type  1   force =    -0.00080317   -0.00216180    0.00052836
     atom    7 type  1   force =    -0.00007239    0.00006443   -0.00000916
     atom    8 type  1   force =     0.00328017   -0.00190234   -0.00025538
     atom    9 type  2   force =     0.00788499    0.00444380   -0.00836161
     atom   10 type  2   force =    -0.00413273   -0.00180432    0.00548831
     atom   11 type  2   force =     0.00117557   -0.00226883    0.00023712
     atom   12 type  2   force =    -0.00188764    0.00322327    0.00016996

     Total force =     0.020657     Total SCF correction =     0.000010

     Entering Dynamics:    iteration =    36

     <vel(dt)|acc(dt)> =   0.49924791

ATOMIC_POSITIONS (angstrom)
H             4.4602249753        3.6777438708       11.2022372551
H             5.3086797605        4.2728188013       10.0013287443
H             3.3367381993        1.2189601585        8.1014759200
H             3.1541796046        2.8923108650        9.3406934718
H             4.0081029683        3.4872852944        8.1418897665
H             6.3672159102        4.0435765748        8.1024319493
H             2.9676715152        1.7585765409       11.2375968461
H             2.0993040847        3.1308099351       11.2333466176
O             5.2689120299        4.2232451263       11.0031602002
O             3.1973555477        2.9419347725        8.3390151446
O             5.4608045847        4.4305962649        8.2661684000
O             3.0061972705        2.7402485535       11.0703417623



     Writing config-only to output data dir ./output/f-BH.save/
     NEW-OLD atomic charge density approx. for the potential

     negative rho (up, down):  4.846E-04 0.000E+00

     total cpu time spent up to now is     2629.6 secs

     per-process dynamical memory:   210.2 Mb

     Self-consistent Calculation

     iteration #  1     ecut=    60.00 Ry     beta= 0.70
     Davidson diagonalization with overlap
     ethr =  1.00E-06,  avg # of iterations =  3.6

     Threshold (ethr) on eigenvalues was too large:
     Diagonalizing with lowered threshold

     Davidson diagonalization with overlap
     ethr =  9.94E-08,  avg # of iterations =  2.0

     negative rho (up, down):  4.846E-04 0.000E+00

     total cpu time spent up to now is     2640.7 secs

     total energy              =    -176.32043348 Ry
     estimated scf accuracy    <       0.00003689 Ry

     iteration #  2     ecut=    60.00 Ry     beta= 0.70
     Davidson diagonalization with overlap
     ethr =  1.15E-07,  avg # of iterations =  2.0

     negative rho (up, down):  4.845E-04 0.000E+00

     total cpu time spent up to now is     2646.0 secs

     total energy              =    -176.32043877 Ry
     estimated scf accuracy    <       0.00000264 Ry

     iteration #  3     ecut=    60.00 Ry     beta= 0.70
     Davidson diagonalization with overlap
     ethr =  8.24E-09,  avg # of iterations =  2.0

     negative rho (up, down):  4.845E-04 0.000E+00

     total cpu time spent up to now is     2651.5 secs

     total energy              =    -176.32043932 Ry
     estimated scf accuracy    <       0.00000052 Ry

     iteration #  4     ecut=    60.00 Ry     beta= 0.70
     Davidson diagonalization with overlap
     ethr =  1.62E-09,  avg # of iterations =  2.0

     negative rho (up, down):  4.845E-04 0.000E+00

     total cpu time spent up to now is     2656.9 secs

     total energy              =    -176.32043943 Ry
     estimated scf accuracy    <       0.00000003 Ry

     iteration #  5     ecut=    60.00 Ry     beta= 0.70
     Davidson diagonalization with overlap
     ethr =  8.72E-11,  avg # of iterations =  2.0

     negative rho (up, down):  4.845E-04 0.000E+00

     total cpu time spent up to now is     2662.3 secs

     total energy              =    -176.32043943 Ry
     estimated scf accuracy    <          4.4E-09 Ry

     iteration #  6     ecut=    60.00 Ry     beta= 0.70
     Davidson diagonalization with overlap
     ethr =  1.36E-11,  avg # of iterations =  2.0

     negative rho (up, down):  4.845E-04 0.000E+00

     total cpu time spent up to now is     2667.9 secs

     total energy              =    -176.32043944 Ry
     estimated scf accuracy    <          2.9E-10 Ry

     iteration #  7     ecut=    60.00 Ry     beta= 0.70
     Davidson diagonalization with overlap
     ethr =  8.91E-13,  avg # of iterations =  3.0

     negative rho (up, down):  4.845E-04 0.000E+00

     total cpu time spent up to now is     2674.0 secs

     total energy              =    -176.32043944 Ry
     estimated scf accuracy    <          1.1E-10 Ry

     iteration #  8     ecut=    60.00 Ry     beta= 0.70
     Davidson diagonalization with overlap
     ethr =  3.59E-13,  avg # of iterations =  3.0

     negative rho (up, down):  4.845E-04 0.000E+00

     total cpu time spent up to now is     2679.5 secs

     End of self-consistent calculation

          k = 0.0000 0.0000 0.0000 ( 18047 PWs)   bands (ev):

   -24.6770 -24.2457 -23.4636 -23.0988 -12.0430 -11.9688 -11.9307 -11.8469
   -10.1363  -8.9873  -7.5708  -7.0509  -6.4718  -6.4145  -6.3411  -6.1886

          k =-0.0153 0.2863 0.0000 ( 18132 PWs)   bands (ev):

   -24.5402 -24.1136 -23.6356 -23.2635 -12.1980 -12.1401 -11.7165 -11.5946
    -9.9172  -8.9189  -7.7629  -7.3806  -6.5732  -6.4556  -6.2290  -6.1050

          k = 0.0307-0.5725 0.0000 ( 18166 PWs)   bands (ev):

   -24.3122 -23.9259 -23.8607 -23.5209 -12.2633 -12.2397 -11.5705 -11.4382
    -9.6200  -8.8236  -7.9957  -7.7795  -6.6313  -6.4488  -6.1377  -6.0329

          k = 0.2575-0.1328 0.0000 ( 18109 PWs)   bands (ev):

   -24.5370 -24.1112 -23.6380 -23.2661 -12.2337 -12.1481 -11.6676 -11.6301
    -9.8943  -8.9132  -7.7608  -7.3697  -6.5486  -6.4744  -6.2334  -6.1147

          k = 0.2421 0.1535 0.0000 ( 18132 PWs)   bands (ev):

   -24.5411 -24.1241 -23.6326 -23.2521 -12.0864 -12.0060 -11.9242 -11.7441
    -9.8022  -8.8082  -7.9350  -7.4238  -6.4128  -6.3531  -6.2645  -6.2257

          k = 0.2882-0.7053 0.0000 ( 18147 PWs)   bands (ev):

   -24.3140 -23.9535 -23.8510 -23.4982 -12.2204 -12.1985 -11.6870 -11.5226
    -9.4473  -8.5821  -8.2957  -7.8752  -6.5373  -6.3998  -6.1379  -6.0676

          k = 0.2728-0.4190 0.0000 ( 18128 PWs)   bands (ev):

   -24.3058 -23.9304 -23.8560 -23.5268 -12.3056 -12.2520 -11.5358 -11.4529
    -9.5729  -8.7769  -8.0223  -7.8311  -6.5944  -6.4698  -6.1127  -6.0461

          k =-0.5150 0.2656 0.0000 ( 18184 PWs)   bands (ev):

   -24.2984 -23.9359 -23.8506 -23.5336 -12.3249 -12.2404 -11.5308 -11.4763
    -9.5761  -8.8055  -8.0026  -7.7558  -6.5988  -6.4701  -6.1459  -6.0430

          k =-0.5303 0.5518 0.0000 ( 18128 PWs)   bands (ev):

   -24.3071 -23.9566 -23.8484 -23.5040 -12.2556 -12.2003 -11.6646 -11.5359
    -9.4214  -8.5786  -8.2997  -7.8667  -6.5163  -6.4103  -6.1443  -6.0737

          k =-0.4843-0.3070 0.0000 ( 18166 PWs)   bands (ev):

   -24.3141 -23.9814 -23.8394 -23.4790 -12.1293 -12.0002 -11.9617 -11.6434
    -9.2520  -8.6659  -8.1677  -8.0617  -6.3738  -6.2907  -6.2267  -6.2008

     highest occupied level (ev):    -6.0329

!    total energy              =    -176.32043944 Ry
     estimated scf accuracy    <          4.6E-12 Ry

     convergence has been achieved in   8 iterations

     negative rho (up, down):  4.845E-04 0.000E+00

     Forces acting on atoms (cartesian axes, Ry/au):

     atom    1 type  1   force =    -0.00349154   -0.00090977   -0.00002949
     atom    2 type  1   force =    -0.00047604    0.00051221    0.00241184
     atom    3 type  1   force =    -0.00124261    0.00068919    0.00014363
     atom    4 type  1   force =     0.00077615   -0.00031861   -0.00228449
     atom    5 type  1   force =     0.00182433   -0.00001638    0.00025027
     atom    6 type  1   force =    -0.00100147   -0.00096551    0.00023576
     atom    7 type  1   force =     0.00060781   -0.00098347    0.00011083
     atom    8 type  1   force =     0.00239951   -0.00052937   -0.00022500
     atom    9 type  2   force =     0.00324487    0.00153958   -0.00215730
     atom   10 type  2   force =    -0.00126786   -0.00003943    0.00102789
     atom   11 type  2   force =    -0.00002504   -0.00185942    0.00010272
     atom   12 type  2   force =    -0.00134811    0.00288097    0.00041334

     Total force =     0.008607     Total SCF correction =     0.000002

     Entering Dynamics:    iteration =    37

     <vel(dt)|acc(dt)> =   0.92605473

ATOMIC_POSITIONS (angstrom)
H             4.4597333944        3.6818853621       11.2016946478
H             5.3091655685        4.2746486683       10.0013201155
H             3.3326579270        1.2188376455        8.0998231688
H             3.1531478780        2.8884251939        9.3418092252
H             4.0069294641        3.4822267283        8.1437133056
H             6.3658985000        4.0392301506        8.1033912688
H             2.9703016300        1.7624276508       11.2377067605
H             2.1015351764        3.1317195773       11.2330417940
O             5.2732517972        4.2268694538       11.0008537417
O             3.1945193749        2.9380282505        8.3411331935
O             5.4602420630        4.4280764603        8.2636881224
O             3.0080036772        2.7457316167       11.0715107341



     Writing config-only to output data dir ./output/f-BH.save/
     NEW-OLD atomic charge density approx. for the potential

     negative rho (up, down):  4.847E-04 0.000E+00

     total cpu time spent up to now is     2692.3 secs

     per-process dynamical memory:   210.2 Mb

     Self-consistent Calculation

     iteration #  1     ecut=    60.00 Ry     beta= 0.70
     Davidson diagonalization with overlap
     ethr =  1.00E-06,  avg # of iterations =  4.0

     negative rho (up, down):  4.845E-04 0.000E+00

     total cpu time spent up to now is     2700.0 secs

     total energy              =    -176.32047253 Ry
     estimated scf accuracy    <       0.00005767 Ry

     iteration #  2     ecut=    60.00 Ry     beta= 0.70
     Davidson diagonalization with overlap
     ethr =  1.80E-07,  avg # of iterations =  2.0

     negative rho (up, down):  4.845E-04 0.000E+00

     total cpu time spent up to now is     2705.3 secs

     total energy              =    -176.32048004 Ry
     estimated scf accuracy    <       0.00000371 Ry

     iteration #  3     ecut=    60.00 Ry     beta= 0.70
     Davidson diagonalization with overlap
     ethr =  1.16E-08,  avg # of iterations =  3.0

     negative rho (up, down):  4.845E-04 0.000E+00

     total cpu time spent up to now is     2711.2 secs

     total energy              =    -176.32048089 Ry
     estimated scf accuracy    <       0.00000090 Ry

     iteration #  4     ecut=    60.00 Ry     beta= 0.70
     Davidson diagonalization with overlap
     ethr =  2.83E-09,  avg # of iterations =  2.9

     negative rho (up, down):  4.845E-04 0.000E+00

     total cpu time spent up to now is     2716.6 secs

     total energy              =    -176.32048108 Ry
     estimated scf accuracy    <       0.00000005 Ry

     iteration #  5     ecut=    60.00 Ry     beta= 0.70
     Davidson diagonalization with overlap
     ethr =  1.64E-10,  avg # of iterations =  2.1

     negative rho (up, down):  4.845E-04 0.000E+00

     total cpu time spent up to now is     2722.2 secs

     total energy              =    -176.32048109 Ry
     estimated scf accuracy    <       0.00000001 Ry

     iteration #  6     ecut=    60.00 Ry     beta= 0.70
     Davidson diagonalization with overlap
     ethr =  3.19E-11,  avg # of iterations =  2.0

     negative rho (up, down):  4.845E-04 0.000E+00

     total cpu time spent up to now is     2727.6 secs

     total energy              =    -176.32048109 Ry
     estimated scf accuracy    <          7.9E-10 Ry

     iteration #  7     ecut=    60.00 Ry     beta= 0.70
     Davidson diagonalization with overlap
     ethr =  2.46E-12,  avg # of iterations =  3.1

     negative rho (up, down):  4.845E-04 0.000E+00

     total cpu time spent up to now is     2733.9 secs

     total energy              =    -176.32048109 Ry
     estimated scf accuracy    <          2.1E-10 Ry

     iteration #  8     ecut=    60.00 Ry     beta= 0.70
     Davidson diagonalization with overlap
     ethr =  6.65E-13,  avg # of iterations =  2.1

     negative rho (up, down):  4.845E-04 0.000E+00

     total cpu time spent up to now is     2739.1 secs

     End of self-consistent calculation

          k = 0.0000 0.0000 0.0000 ( 18047 PWs)   bands (ev):

   -24.6780 -24.2437 -23.4641 -23.0952 -12.0473 -11.9564 -11.9255 -11.8517
   -10.1378  -8.9990  -7.5678  -7.0514  -6.4723  -6.4154  -6.3434  -6.1852

          k =-0.0153 0.2863 0.0000 ( 18132 PWs)   bands (ev):

   -24.5412 -24.1118 -23.6357 -23.2600 -12.1942 -12.1373 -11.7136 -11.5991
    -9.9157  -8.9281  -7.7609  -7.3814  -6.5720  -6.4576  -6.2318  -6.1021

          k = 0.0307-0.5725 0.0000 ( 18166 PWs)   bands (ev):

   -24.3138 -23.9282 -23.8566 -23.5171 -12.2585 -12.2371 -11.5706 -11.4444
    -9.6149  -8.8282  -7.9967  -7.7821  -6.6285  -6.4503  -6.1410  -6.0308

          k = 0.2575-0.1328 0.0000 ( 18109 PWs)   bands (ev):

   -24.5377 -24.1091 -23.6388 -23.2629 -12.2228 -12.1438 -11.6735 -11.6323
    -9.8957  -8.9225  -7.7589  -7.3713  -6.5511  -6.4722  -6.2350  -6.1114

          k = 0.2421 0.1535 0.0000 ( 18132 PWs)   bands (ev):

   -24.5425 -24.1226 -23.6324 -23.2482 -12.0909 -11.9980 -11.9273 -11.7385
    -9.8028  -8.8188  -7.9312  -7.4242  -6.4128  -6.3546  -6.2669  -6.2223

          k = 0.2882-0.7053 0.0000 ( 18147 PWs)   bands (ev):

   -24.3161 -23.9549 -23.8476 -23.4937 -12.2194 -12.1958 -11.6877 -11.5232
    -9.4442  -8.5884  -8.2947  -7.8774  -6.5354  -6.3999  -6.1412  -6.0660

          k = 0.2728-0.4190 0.0000 ( 18128 PWs)   bands (ev):

   -24.3063 -23.9330 -23.8520 -23.5238 -12.2953 -12.2491 -11.5402 -11.4586
    -9.5711  -8.7811  -8.0229  -7.8344  -6.5936  -6.4689  -6.1163  -6.0426

          k =-0.5150 0.2656 0.0000 ( 18184 PWs)   bands (ev):

   -24.2978 -23.9392 -23.8466 -23.5314 -12.3110 -12.2351 -11.5415 -11.4795
    -9.5775  -8.8100  -8.0025  -7.7602  -6.5999  -6.4670  -6.1474  -6.0400

          k =-0.5303 0.5518 0.0000 ( 18128 PWs)   bands (ev):

   -24.3082 -23.9583 -23.8454 -23.5001 -12.2463 -12.1985 -11.6708 -11.5365
    -9.4223  -8.5853  -8.2969  -7.8695  -6.5169  -6.4077  -6.1467  -6.0718

          k =-0.4843-0.3070 0.0000 ( 18166 PWs)   bands (ev):

   -24.3168 -23.9823 -23.8365 -23.4738 -12.1337 -11.9950 -11.9646 -11.6380
    -9.2533  -8.6706  -8.1675  -8.0609  -6.3747  -6.2865  -6.2287  -6.2031

     highest occupied level (ev):    -6.0308

!    total energy              =    -176.32048109 Ry
     estimated scf accuracy    <          1.9E-11 Ry

     convergence has been achieved in   8 iterations

     negative rho (up, down):  4.845E-04 0.000E+00

     Forces acting on atoms (cartesian axes, Ry/au):

     atom    1 type  1   force =     0.00118133    0.00214350   -0.00095203
     atom    2 type  1   force =     0.00009263    0.00080596   -0.00120771
     atom    3 type  1   force =    -0.00036693   -0.00248610    0.00048100
     atom    4 type  1   force =     0.00055647   -0.00012528   -0.00081738
     atom    5 type  1   force =     0.00104970   -0.00037221    0.00018738
     atom    6 type  1   force =    -0.00027984   -0.00021320   -0.00023326
     atom    7 type  1   force =     0.00121860    0.00072498   -0.00025084
     atom    8 type  1   force =    -0.00058960    0.00154807    0.00026879
     atom    9 type  2   force =    -0.00265587   -0.00173010    0.00267329
     atom   10 type  2   force =     0.00011964    0.00043661   -0.00068668
     atom   11 type  2   force =    -0.00198178    0.00054124    0.00005066
     atom   12 type  2   force =     0.00165564   -0.00127348    0.00048677

     Total force =     0.007042     Total SCF correction =     0.000006

     Entering Dynamics:    iteration =    38

     <vel(dt)|acc(dt)> =   0.35707491

ATOMIC_POSITIONS (angstrom)
H             4.4605621948        3.6836833655       11.2006432308
H             5.3092800917        4.2757549264       10.0009220986
H             3.3313219785        1.2157491730        8.1006470092
H             3.1537170279        2.8884150737        9.3405937362
H             4.0079375176        3.4819560147        8.1440274481
H             6.3647806918        4.0375820791        8.1027623972
H             2.9715046357        1.7638011945       11.2378820271
H             2.1022278132        3.1339533396       11.2335277058
O             5.2721164816        4.2270753101       11.0013028335
O             3.1940355011        2.9375144471        8.3414361385
O             5.4583282206        4.4271223939        8.2636700885
O             3.0095742962        2.7454994405       11.0722713644



     Writing config-only to output data dir ./output/f-BH.save/
     NEW-OLD atomic charge density approx. for the potential

     negative rho (up, down):  4.844E-04 0.000E+00

     total cpu time spent up to now is     2751.8 secs

     per-process dynamical memory:   210.2 Mb

     Self-consistent Calculation

     iteration #  1     ecut=    60.00 Ry     beta= 0.70
     Davidson diagonalization with overlap
     ethr =  1.00E-06,  avg # of iterations =  3.0

     Threshold (ethr) on eigenvalues was too large:
     Diagonalizing with lowered threshold

     Davidson diagonalization with overlap
     ethr =  2.99E-08,  avg # of iterations =  2.5

     negative rho (up, down):  4.844E-04 0.000E+00

     total cpu time spent up to now is     2762.5 secs

     total energy              =    -176.32050680 Ry
     estimated scf accuracy    <       0.00001182 Ry

     iteration #  2     ecut=    60.00 Ry     beta= 0.70
     Davidson diagonalization with overlap
     ethr =  3.69E-08,  avg # of iterations =  2.0

     negative rho (up, down):  4.843E-04 0.000E+00

     total cpu time spent up to now is     2767.8 secs

     total energy              =    -176.32050910 Ry
     estimated scf accuracy    <       0.00000163 Ry

     iteration #  3     ecut=    60.00 Ry     beta= 0.70
     Davidson diagonalization with overlap
     ethr =  5.11E-09,  avg # of iterations =  2.0

     negative rho (up, down):  4.843E-04 0.000E+00

     total cpu time spent up to now is     2773.3 secs

     total energy              =    -176.32050946 Ry
     estimated scf accuracy    <       0.00000021 Ry

     iteration #  4     ecut=    60.00 Ry     beta= 0.70
     Davidson diagonalization with overlap
     ethr =  6.55E-10,  avg # of iterations =  2.0

     negative rho (up, down):  4.843E-04 0.000E+00

     total cpu time spent up to now is     2778.5 secs

     total energy              =    -176.32050949 Ry
     estimated scf accuracy    <       0.00000001 Ry

     iteration #  5     ecut=    60.00 Ry     beta= 0.70
     Davidson diagonalization with overlap
     ethr =  3.87E-11,  avg # of iterations =  2.0

     negative rho (up, down):  4.843E-04 0.000E+00

     total cpu time spent up to now is     2784.3 secs

     total energy              =    -176.32050949 Ry
     estimated scf accuracy    <          2.4E-09 Ry

     iteration #  6     ecut=    60.00 Ry     beta= 0.70
     Davidson diagonalization with overlap
     ethr =  7.60E-12,  avg # of iterations =  2.0

     negative rho (up, down):  4.843E-04 0.000E+00

     total cpu time spent up to now is     2789.8 secs

     total energy              =    -176.32050949 Ry
     estimated scf accuracy    <          2.4E-10 Ry

     iteration #  7     ecut=    60.00 Ry     beta= 0.70
     Davidson diagonalization with overlap
     ethr =  7.56E-13,  avg # of iterations =  2.8

     negative rho (up, down):  4.843E-04 0.000E+00

     total cpu time spent up to now is     2795.8 secs

     End of self-consistent calculation

          k = 0.0000 0.0000 0.0000 ( 18047 PWs)   bands (ev):

   -24.6815 -24.2484 -23.4686 -23.1012 -12.0512 -11.9645 -11.9291 -11.8534
   -10.1388  -9.0018  -7.5671  -7.0521  -6.4729  -6.4169  -6.3457  -6.1889

          k =-0.0153 0.2863 0.0000 ( 18132 PWs)   bands (ev):

   -24.5448 -24.1165 -23.6403 -23.2659 -12.1967 -12.1410 -11.7207 -11.6034
    -9.9180  -8.9313  -7.7593  -7.3809  -6.5730  -6.4599  -6.2327  -6.1062

          k = 0.0307-0.5725 0.0000 ( 18166 PWs)   bands (ev):

   -24.3171 -23.9325 -23.8616 -23.5231 -12.2596 -12.2410 -11.5784 -11.4490
    -9.6198  -8.8317  -7.9949  -7.7790  -6.6298  -6.4525  -6.1417  -6.0351

          k = 0.2575-0.1328 0.0000 ( 18109 PWs)   bands (ev):

   -24.5417 -24.1141 -23.6427 -23.2684 -12.2304 -12.1511 -11.6727 -11.6376
    -9.8949  -8.9240  -7.7601  -7.3737  -6.5517  -6.4738  -6.2345  -6.1153

          k = 0.2421 0.1535 0.0000 ( 18132 PWs)   bands (ev):

   -24.5457 -24.1269 -23.6373 -23.2546 -12.0946 -12.0028 -11.9316 -11.7424
    -9.8037  -8.8216  -7.9308  -7.4253  -6.4141  -6.3554  -6.2691  -6.2263

          k = 0.2882-0.7053 0.0000 ( 18147 PWs)   bands (ev):

   -24.3188 -23.9592 -23.8525 -23.5007 -12.2207 -12.2004 -11.6939 -11.5280
    -9.4477  -8.5929  -8.2922  -7.8761  -6.5363  -6.4027  -6.1416  -6.0705

          k = 0.2728-0.4190 0.0000 ( 18128 PWs)   bands (ev):

   -24.3107 -23.9368 -23.8571 -23.5288 -12.3012 -12.2544 -11.5444 -11.4626
    -9.5721  -8.7828  -8.0235  -7.8347  -6.5943  -6.4709  -6.1149  -6.0476

          k =-0.5150 0.2656 0.0000 ( 18184 PWs)   bands (ev):

   -24.3034 -23.9421 -23.8521 -23.5355 -12.3199 -12.2432 -11.5409 -11.4843
    -9.5746  -8.8098  -8.0056  -7.7638  -6.6003  -6.4687  -6.1463  -6.0435

          k =-0.5303 0.5518 0.0000 ( 18128 PWs)   bands (ev):

   -24.3120 -23.9623 -23.8501 -23.5063 -12.2538 -12.2041 -11.6732 -11.5395
    -9.4210  -8.5860  -8.2987  -7.8726  -6.5174  -6.4105  -6.1458  -6.0759

          k =-0.4843-0.3070 0.0000 ( 18166 PWs)   bands (ev):

   -24.3189 -23.9863 -23.8416 -23.4816 -12.1375 -11.9975 -11.9703 -11.6421
    -9.2540  -8.6712  -8.1689  -8.0632  -6.3746  -6.2922  -6.2279  -6.2066

     highest occupied level (ev):    -6.0351

!    total energy              =    -176.32050949 Ry
     estimated scf accuracy    <          6.3E-11 Ry

     convergence has been achieved in   7 iterations

     negative rho (up, down):  4.843E-04 0.000E+00

     Forces acting on atoms (cartesian axes, Ry/au):

     atom    1 type  1   force =    -0.00198862   -0.00019213    0.00001172
     atom    2 type  1   force =    -0.00007174    0.00060148    0.00031223
     atom    3 type  1   force =    -0.00035019    0.00063135   -0.00016983
     atom    4 type  1   force =     0.00030352   -0.00033361    0.00138153
     atom    5 type  1   force =    -0.00056487   -0.00129316    0.00039184
     atom    6 type  1   force =    -0.00149879    0.00027992    0.00014028
     atom    7 type  1   force =     0.00078473   -0.00135993    0.00031917
     atom    8 type  1   force =     0.00158226    0.00008017   -0.00007988
     atom    9 type  2   force =     0.00125102    0.00060501    0.00017691
     atom   10 type  2   force =     0.00168415    0.00172789   -0.00316521
     atom   11 type  2   force =    -0.00042890   -0.00317204    0.00031528
     atom   12 type  2   force =    -0.00070258    0.00242506    0.00036598

     Total force =     0.007166     Total SCF correction =     0.000008

     Entering Dynamics:    iteration =    39

     <vel(dt)|acc(dt)> =   0.71057308

ATOMIC_POSITIONS (angstrom)
H             4.4613389564        3.6860993078       11.1998920930
H             5.3098411614        4.2771789789        9.9999355013
H             3.3296739195        1.2133616883        8.1005857006
H             3.1534834208        2.8873765197        9.3414120732
H             4.0071133537        3.4796252991        8.1448474894
H             6.3630408884        4.0350465165        8.1023339691
H             2.9730807334        1.7655529426       11.2383314460
H             2.1038198498        3.1367444507       11.2338416644
O             5.2732565013        4.2291656197       11.0006132285
O             3.1932390758        2.9359523446        8.3415449085
O             5.4564804422        4.4241380509        8.2629285311
O             3.0110181481        2.7478650392       11.0734194728



     Writing config-only to output data dir ./output/f-BH.save/
     NEW-OLD atomic charge density approx. for the potential

     negative rho (up, down):  4.844E-04 0.000E+00

     total cpu time spent up to now is     2808.5 secs

     per-process dynamical memory:   210.2 Mb

     Self-consistent Calculation

     iteration #  1     ecut=    60.00 Ry     beta= 0.70
     Davidson diagonalization with overlap
     ethr =  1.00E-06,  avg # of iterations =  3.0

     Threshold (ethr) on eigenvalues was too large:
     Diagonalizing with lowered threshold

     Davidson diagonalization with overlap
     ethr =  4.01E-08,  avg # of iterations =  2.1

     negative rho (up, down):  4.842E-04 0.000E+00

     total cpu time spent up to now is     2820.0 secs

     total energy              =    -176.32054118 Ry
     estimated scf accuracy    <       0.00001460 Ry

     iteration #  2     ecut=    60.00 Ry     beta= 0.70
     Davidson diagonalization with overlap
     ethr =  4.56E-08,  avg # of iterations =  2.0

     negative rho (up, down):  4.843E-04 0.000E+00

     total cpu time spent up to now is     2825.3 secs

     total energy              =    -176.32054285 Ry
     estimated scf accuracy    <       0.00000109 Ry

     iteration #  3     ecut=    60.00 Ry     beta= 0.70
     Davidson diagonalization with overlap
     ethr =  3.41E-09,  avg # of iterations =  2.0

     negative rho (up, down):  4.842E-04 0.000E+00

     total cpu time spent up to now is     2830.9 secs

     total energy              =    -176.32054304 Ry
     estimated scf accuracy    <       0.00000037 Ry

     iteration #  4     ecut=    60.00 Ry     beta= 0.70
     Davidson diagonalization with overlap
     ethr =  1.17E-09,  avg # of iterations =  2.1

     negative rho (up, down):  4.842E-04 0.000E+00

     total cpu time spent up to now is     2836.4 secs

     total energy              =    -176.32054311 Ry
     estimated scf accuracy    <       0.00000001 Ry

     iteration #  5     ecut=    60.00 Ry     beta= 0.70
     Davidson diagonalization with overlap
     ethr =  3.93E-11,  avg # of iterations =  3.0

     negative rho (up, down):  4.843E-04 0.000E+00

     total cpu time spent up to now is     2842.6 secs

     total energy              =    -176.32054311 Ry
     estimated scf accuracy    <          7.7E-09 Ry

     iteration #  6     ecut=    60.00 Ry     beta= 0.70
     Davidson diagonalization with overlap
     ethr =  2.41E-11,  avg # of iterations =  2.0

     negative rho (up, down):  4.843E-04 0.000E+00

     total cpu time spent up to now is     2847.8 secs

     total energy              =    -176.32054311 Ry
     estimated scf accuracy    <          6.9E-10 Ry

     iteration #  7     ecut=    60.00 Ry     beta= 0.70
     Davidson diagonalization with overlap
     ethr =  2.16E-12,  avg # of iterations =  3.7

     negative rho (up, down):  4.843E-04 0.000E+00

     total cpu time spent up to now is     2854.5 secs

     total energy              =    -176.32054311 Ry
     estimated scf accuracy    <          4.2E-10 Ry

     iteration #  8     ecut=    60.00 Ry     beta= 0.70
     Davidson diagonalization with overlap
     ethr =  1.32E-12,  avg # of iterations =  2.0

     negative rho (up, down):  4.843E-04 0.000E+00

     total cpu time spent up to now is     2859.6 secs

     End of self-consistent calculation

          k = 0.0000 0.0000 0.0000 ( 18047 PWs)   bands (ev):

   -24.6815 -24.2480 -23.4689 -23.1009 -12.0515 -11.9603 -11.9269 -11.8541
   -10.1412  -9.0057  -7.5672  -7.0527  -6.4731  -6.4191  -6.3468  -6.1893

          k =-0.0153 0.2863 0.0000 ( 18132 PWs)   bands (ev):

   -24.5449 -24.1163 -23.6404 -23.2654 -12.1960 -12.1405 -11.7178 -11.6032
    -9.9196  -8.9349  -7.7599  -7.3818  -6.5730  -6.4608  -6.2340  -6.1072

          k = 0.0307-0.5725 0.0000 ( 18166 PWs)   bands (ev):

   -24.3177 -23.9316 -23.8623 -23.5219 -12.2591 -12.2409 -11.5761 -11.4489
    -9.6206  -8.8344  -7.9966  -7.7797  -6.6291  -6.4534  -6.1429  -6.0364

          k = 0.2575-0.1328 0.0000 ( 18109 PWs)   bands (ev):

   -24.5417 -24.1137 -23.6429 -23.2680 -12.2281 -12.1511 -11.6725 -11.6354
    -9.8972  -8.9275  -7.7606  -7.3749  -6.5529  -6.4736  -6.2353  -6.1164

          k = 0.2421 0.1535 0.0000 ( 18132 PWs)   bands (ev):

   -24.5455 -24.1262 -23.6379 -23.2547 -12.0949 -11.9991 -11.9315 -11.7399
    -9.8059  -8.8257  -7.9310  -7.4266  -6.4158  -6.3556  -6.2700  -6.2272

          k = 0.2882-0.7053 0.0000 ( 18147 PWs)   bands (ev):

   -24.3186 -23.9581 -23.8533 -23.5007 -12.2207 -12.1993 -11.6919 -11.5262
    -9.4489  -8.5967  -8.2930  -7.8775  -6.5360  -6.4037  -6.1427  -6.0718

          k = 0.2728-0.4190 0.0000 ( 18128 PWs)   bands (ev):

   -24.3111 -23.9359 -23.8579 -23.5280 -12.2993 -12.2550 -11.5430 -11.4617
    -9.5735  -8.7853  -8.0251  -7.8359  -6.5946  -6.4709  -6.1157  -6.0490

          k =-0.5150 0.2656 0.0000 ( 18184 PWs)   bands (ev):

   -24.3036 -23.9413 -23.8527 -23.5349 -12.3172 -12.2437 -11.5414 -11.4818
    -9.5767  -8.8121  -8.0068  -7.7655  -6.6013  -6.4680  -6.1470  -6.0449

          k =-0.5303 0.5518 0.0000 ( 18128 PWs)   bands (ev):

   -24.3115 -23.9612 -23.8508 -23.5066 -12.2517 -12.2040 -11.6726 -11.5370
    -9.4231  -8.5895  -8.2991  -7.8744  -6.5182  -6.4106  -6.1464  -6.0775

          k =-0.4843-0.3070 0.0000 ( 18166 PWs)   bands (ev):

   -24.3179 -23.9849 -23.8427 -23.4827 -12.1379 -11.9937 -11.9704 -11.6390
    -9.2557  -8.6741  -8.1710  -8.0649  -6.3753  -6.2946  -6.2280  -6.2071

     highest occupied level (ev):    -6.0364

!    total energy              =    -176.32054311 Ry
     estimated scf accuracy    <          3.2E-11 Ry

     convergence has been achieved in   8 iterations

     negative rho (up, down):  4.843E-04 0.000E+00

     Forces acting on atoms (cartesian axes, Ry/au):

     atom    1 type  1   force =    -0.00187919   -0.00017718    0.00014594
     atom    2 type  1   force =    -0.00001255    0.00053195    0.00057771
     atom    3 type  1   force =    -0.00038157   -0.00002735   -0.00012850
     atom    4 type  1   force =     0.00019482   -0.00029781    0.00049755
     atom    5 type  1   force =     0.00013560   -0.00078382   -0.00004709
     atom    6 type  1   force =    -0.00130084    0.00020319    0.00011173
     atom    7 type  1   force =     0.00067404   -0.00069965    0.00026140
     atom    8 type  1   force =     0.00139040   -0.00003755   -0.00001527
     atom    9 type  2   force =     0.00112383    0.00066907   -0.00013946
     atom   10 type  2   force =     0.00091470    0.00099692   -0.00182153
     atom   11 type  2   force =    -0.00038682   -0.00212379    0.00028516
     atom   12 type  2   force =    -0.00047243    0.00174602    0.00027235

     Total force =     0.005003     Total SCF correction =     0.000007

     Entering Dynamics:    iteration =    40

     <vel(dt)|acc(dt)> =   0.99616243

ATOMIC_POSITIONS (angstrom)
H             4.4640596993        3.6968022081       11.1968423612
H             5.3121309223        4.2833504611        9.9964739660
H             3.3217480527        1.2029721193        8.1001041942
H             3.1523734703        2.8823011980        9.3439133658
H             4.0046238204        3.4697398246        8.1479930318
H             6.3557615845        4.0240262130        8.1008968811
H             2.9800746535        1.7741446426       11.2401114618
H             2.1106793885        3.1475441266       11.2351303349
O             5.2781805814        4.2380451885       10.9974777680
O             3.1892186459        2.9286292067        8.3431262012
O             5.4490365632        4.4127564102        8.2595249334
O             3.0174990687        2.7577951594       11.0780915785



     Writing config-only to output data dir ./output/f-BH.save/
     NEW-OLD atomic charge density approx. for the potential

     negative rho (up, down):  4.840E-04 0.000E+00

     total cpu time spent up to now is     2872.3 secs

     per-process dynamical memory:   210.2 Mb

     Self-consistent Calculation

     iteration #  1     ecut=    60.00 Ry     beta= 0.70
     Davidson diagonalization with overlap
     ethr =  1.00E-06,  avg # of iterations =  5.0

     negative rho (up, down):  4.840E-04 0.000E+00

     total cpu time spent up to now is     2881.6 secs

     total energy              =    -176.32060226 Ry
     estimated scf accuracy    <       0.00024402 Ry

     iteration #  2     ecut=    60.00 Ry     beta= 0.70
     Davidson diagonalization with overlap
     ethr =  7.63E-07,  avg # of iterations =  2.0

     negative rho (up, down):  4.842E-04 0.000E+00

     total cpu time spent up to now is     2886.7 secs

     total energy              =    -176.32062741 Ry
     estimated scf accuracy    <       0.00001667 Ry

     iteration #  3     ecut=    60.00 Ry     beta= 0.70
     Davidson diagonalization with overlap
     ethr =  5.21E-08,  avg # of iterations =  2.2

     negative rho (up, down):  4.843E-04 0.000E+00

     total cpu time spent up to now is     2892.4 secs

     total energy              =    -176.32063060 Ry
     estimated scf accuracy    <       0.00000523 Ry

     iteration #  4     ecut=    60.00 Ry     beta= 0.70
     Davidson diagonalization with overlap
     ethr =  1.64E-08,  avg # of iterations =  2.1

     negative rho (up, down):  4.843E-04 0.000E+00

     total cpu time spent up to now is     2897.9 secs

     total energy              =    -176.32063164 Ry
     estimated scf accuracy    <       0.00000023 Ry

     iteration #  5     ecut=    60.00 Ry     beta= 0.70
     Davidson diagonalization with overlap
     ethr =  7.04E-10,  avg # of iterations =  3.0

     negative rho (up, down):  4.843E-04 0.000E+00

     total cpu time spent up to now is     2904.1 secs

     total energy              =    -176.32063168 Ry
     estimated scf accuracy    <       0.00000012 Ry

     iteration #  6     ecut=    60.00 Ry     beta= 0.70
     Davidson diagonalization with overlap
     ethr =  3.86E-10,  avg # of iterations =  2.0

     negative rho (up, down):  4.844E-04 0.000E+00

     total cpu time spent up to now is     2909.3 secs

     total energy              =    -176.32063169 Ry
     estimated scf accuracy    <       0.00000001 Ry

     iteration #  7     ecut=    60.00 Ry     beta= 0.70
     Davidson diagonalization with overlap
     ethr =  3.39E-11,  avg # of iterations =  3.4

     negative rho (up, down):  4.843E-04 0.000E+00

     total cpu time spent up to now is     2916.1 secs

     total energy              =    -176.32063169 Ry
     estimated scf accuracy    <          6.1E-09 Ry

     iteration #  8     ecut=    60.00 Ry     beta= 0.70
     Davidson diagonalization with overlap
     ethr =  1.91E-11,  avg # of iterations =  2.0

     negative rho (up, down):  4.843E-04 0.000E+00

     total cpu time spent up to now is     2921.5 secs

     total energy              =    -176.32063169 Ry
     estimated scf accuracy    <          1.9E-10 Ry

     iteration #  9     ecut=    60.00 Ry     beta= 0.70
     Davidson diagonalization with overlap
     ethr =  5.92E-13,  avg # of iterations =  4.1

     negative rho (up, down):  4.843E-04 0.000E+00

     total cpu time spent up to now is     2929.2 secs

     total energy              =    -176.32063169 Ry
     estimated scf accuracy    <          1.9E-10 Ry

     iteration # 10     ecut=    60.00 Ry     beta= 0.70
     Davidson diagonalization with overlap
     ethr =  5.92E-13,  avg # of iterations =  2.0

     negative rho (up, down):  4.843E-04 0.000E+00

     total cpu time spent up to now is     2933.8 secs

     End of self-consistent calculation

          k = 0.0000 0.0000 0.0000 ( 18047 PWs)   bands (ev):

   -24.6834 -24.2483 -23.4734 -23.1024 -12.0595 -11.9484 -11.9181 -11.8583
   -10.1487  -9.0232  -7.5655  -7.0547  -6.4717  -6.4280  -6.3502  -6.1920

          k =-0.0153 0.2863 0.0000 ( 18132 PWs)   bands (ev):

   -24.5472 -24.1168 -23.6444 -23.2664 -12.1946 -12.1401 -11.7126 -11.6072
    -9.9241  -8.9508  -7.7588  -7.3830  -6.5730  -6.4645  -6.2390  -6.1117

          k = 0.0307-0.5725 0.0000 ( 18166 PWs)   bands (ev):

   -24.3213 -23.9287 -23.8699 -23.5212 -12.2562 -12.2420 -11.5749 -11.4543
    -9.6234  -8.8462  -7.9990  -7.7787  -6.6264  -6.4574  -6.1482  -6.0419

          k = 0.2575-0.1328 0.0000 ( 18109 PWs)   bands (ev):

   -24.5439 -24.1140 -23.6472 -23.2692 -12.2215 -12.1539 -11.6751 -11.6317
    -9.9033  -8.9421  -7.7608  -7.3787  -6.5581  -6.4718  -6.2378  -6.1205

          k = 0.2421 0.1535 0.0000 ( 18132 PWs)   bands (ev):

   -24.5468 -24.1250 -23.6436 -23.2575 -12.1029 -11.9864 -11.9370 -11.7295
    -9.8120  -8.8432  -7.9294  -7.4304  -6.4233  -6.3550  -6.2730  -6.2316

          k = 0.2882-0.7053 0.0000 ( 18147 PWs)   bands (ev):

   -24.3200 -23.9538 -23.8615 -23.5036 -12.2233 -12.1964 -11.6912 -11.5230
    -9.4529  -8.6129  -8.2917  -7.8802  -6.5349  -6.4084  -6.1469  -6.0772

          k = 0.2728-0.4190 0.0000 ( 18128 PWs)   bands (ev):

   -24.3145 -23.9329 -23.8654 -23.5277 -12.2923 -12.2592 -11.5446 -11.4636
    -9.5777  -8.7957  -8.0282  -7.8380  -6.5960  -6.4709  -6.1184  -6.0547

          k =-0.5150 0.2656 0.0000 ( 18184 PWs)   bands (ev):

   -24.3067 -23.9386 -23.8599 -23.5350 -12.3084 -12.2485 -11.5483 -11.4783
    -9.5825  -8.8211  -8.0096  -7.7713  -6.6051  -6.4653  -6.1488  -6.0495

          k =-0.5303 0.5518 0.0000 ( 18128 PWs)   bands (ev):

   -24.3126 -23.9570 -23.8589 -23.5100 -12.2476 -12.2060 -11.6759 -11.5300
    -9.4291  -8.6030  -8.2981  -7.8808  -6.5214  -6.4115  -6.1480  -6.0830

          k =-0.4843-0.3070 0.0000 ( 18166 PWs)   bands (ev):

   -24.3172 -23.9793 -23.8519 -23.4887 -12.1458 -11.9804 -11.9771 -11.6270
    -9.2615  -8.6821  -8.1797  -8.0689  -6.3788  -6.3044  -6.2269  -6.2094

     highest occupied level (ev):    -6.0419

!    total energy              =    -176.32063169 Ry
     estimated scf accuracy    <          2.9E-11 Ry

     convergence has been achieved in  10 iterations

     negative rho (up, down):  4.843E-04 0.000E+00

     Forces acting on atoms (cartesian axes, Ry/au):

     atom    1 type  1   force =    -0.00091880    0.00012589    0.00053379
     atom    2 type  1   force =     0.00025084    0.00029396    0.00064848
     atom    3 type  1   force =    -0.00010727   -0.00070915   -0.00037700
     atom    4 type  1   force =    -0.00027004   -0.00017757   -0.00045059
     atom    5 type  1   force =     0.00073319   -0.00010103   -0.00110933
     atom    6 type  1   force =    -0.00068672    0.00034607   -0.00001402
     atom    7 type  1   force =     0.00033355    0.00038990    0.00031418
     atom    8 type  1   force =     0.00054757   -0.00025635    0.00022353
     atom    9 type  2   force =     0.00005680    0.00048679   -0.00016637
     atom   10 type  2   force =     0.00019814   -0.00013369    0.00007081
     atom   11 type  2   force =    -0.00052020   -0.00068269    0.00045904
     atom   12 type  2   force =     0.00038294    0.00041786   -0.00013253

     Total force =     0.002728     Total SCF correction =     0.000005

     Entering Dynamics:    iteration =    41

     <vel(dt)|acc(dt)> =   0.99915198

ATOMIC_POSITIONS (angstrom)
H             4.4682595385        3.7137121133       11.1926544681
H             5.3159248838        4.2929528750        9.9915370115
H             3.3093781355        1.1865446622        8.0988825879
H             3.1501973639        2.8742473625        9.3473257591
H             4.0012679178        3.4545219033        8.1516876075
H             6.3444360329        4.0072801445        8.0986952862
H             2.9909321970        1.7881868350       11.2431274379
H             2.1212377454        3.1636291343       11.2373561674
O             5.2851113776        4.2518512539       10.9926908302
O             3.1831459903        2.9168538248        8.3461789215
O             5.4373010123        4.3953059249        8.2546198299
O             3.0281942557        2.7730207243       11.0849301707



     Writing config-only to output data dir ./output/f-BH.save/
     NEW-OLD atomic charge density approx. for the potential

     negative rho (up, down):  4.824E-04 0.000E+00

     total cpu time spent up to now is     2946.5 secs

     per-process dynamical memory:   210.2 Mb

     Self-consistent Calculation

     iteration #  1     ecut=    60.00 Ry     beta= 0.70
     Davidson diagonalization with overlap
     ethr =  1.00E-06,  avg # of iterations =  6.0

     negative rho (up, down):  4.834E-04 0.000E+00

     total cpu time spent up to now is     2957.2 secs

     total energy              =    -176.32060468 Ry
     estimated scf accuracy    <       0.00060613 Ry

     iteration #  2     ecut=    60.00 Ry     beta= 0.70
     Davidson diagonalization with overlap
     ethr =  1.89E-06,  avg # of iterations =  2.0

     negative rho (up, down):  4.840E-04 0.000E+00

     total cpu time spent up to now is     2962.4 secs

     total energy              =    -176.32067059 Ry
     estimated scf accuracy    <       0.00003913 Ry

     iteration #  3     ecut=    60.00 Ry     beta= 0.70
     Davidson diagonalization with overlap
     ethr =  1.22E-07,  avg # of iterations =  2.5

     negative rho (up, down):  4.842E-04 0.000E+00

     total cpu time spent up to now is     2968.2 secs

     total energy              =    -176.32067658 Ry
     estimated scf accuracy    <       0.00001347 Ry

     iteration #  4     ecut=    60.00 Ry     beta= 0.70
     Davidson diagonalization with overlap
     ethr =  4.21E-08,  avg # of iterations =  2.1

     negative rho (up, down):  4.842E-04 0.000E+00

     total cpu time spent up to now is     2973.7 secs

     total energy              =    -176.32067956 Ry
     estimated scf accuracy    <       0.00000048 Ry

     iteration #  5     ecut=    60.00 Ry     beta= 0.70
     Davidson diagonalization with overlap
     ethr =  1.49E-09,  avg # of iterations =  3.2

     negative rho (up, down):  4.843E-04 0.000E+00

     total cpu time spent up to now is     2979.8 secs

     total energy              =    -176.32067956 Ry
     estimated scf accuracy    <       0.00000030 Ry

     iteration #  6     ecut=    60.00 Ry     beta= 0.70
     Davidson diagonalization with overlap
     ethr =  9.30E-10,  avg # of iterations =  2.5

     negative rho (up, down):  4.843E-04 0.000E+00

     total cpu time spent up to now is     2985.5 secs

     total energy              =    -176.32067963 Ry
     estimated scf accuracy    <          1.5E-09 Ry

     iteration #  7     ecut=    60.00 Ry     beta= 0.70
     Davidson diagonalization with overlap
     ethr =  4.69E-12,  avg # of iterations =  6.8

     negative rho (up, down):  4.843E-04 0.000E+00

     total cpu time spent up to now is     2994.9 secs

     total energy              =    -176.32067963 Ry
     estimated scf accuracy    <       0.00000002 Ry

     iteration #  8     ecut=    60.00 Ry     beta= 0.70
     Davidson diagonalization with overlap
     ethr =  4.69E-12,  avg # of iterations =  4.2

     negative rho (up, down):  4.843E-04 0.000E+00

     total cpu time spent up to now is     3002.7 secs

     total energy              =    -176.32067963 Ry
     estimated scf accuracy    <          1.5E-10 Ry

     iteration #  9     ecut=    60.00 Ry     beta= 0.70
     Davidson diagonalization with overlap
     ethr =  4.80E-13,  avg # of iterations =  4.2

     negative rho (up, down):  4.843E-04 0.000E+00

     total cpu time spent up to now is     3010.2 secs

     total energy              =    -176.32067963 Ry
     estimated scf accuracy    <          1.9E-10 Ry

     iteration # 10     ecut=    60.00 Ry     beta= 0.70
     Davidson diagonalization with overlap
     ethr =  4.80E-13,  avg # of iterations =  2.0

     negative rho (up, down):  4.843E-04 0.000E+00

     total cpu time spent up to now is     3014.9 secs

     End of self-consistent calculation

          k = 0.0000 0.0000 0.0000 ( 18047 PWs)   bands (ev):

   -24.6857 -24.2479 -23.4799 -23.1042 -12.0680 -11.9380 -11.9081 -11.8566
   -10.1563  -9.0483  -7.5608  -7.0549  -6.4667  -6.4404  -6.3530  -6.1957

          k =-0.0153 0.2863 0.0000 ( 18132 PWs)   bands (ev):

   -24.5501 -24.1167 -23.6501 -23.2673 -12.1916 -12.1383 -11.7060 -11.6136
    -9.9277  -8.9735  -7.7538  -7.3809  -6.5722  -6.4678  -6.2449  -6.1172

          k = 0.0307-0.5725 0.0000 ( 18166 PWs)   bands (ev):

   -24.3260 -23.9227 -23.8815 -23.5197 -12.2524 -12.2400 -11.5746 -11.4641
    -9.6254  -8.8632  -7.9973  -7.7728  -6.6220  -6.4618  -6.1548  -6.0486

          k = 0.2575-0.1328 0.0000 ( 18109 PWs)   bands (ev):

   -24.5469 -24.1137 -23.6530 -23.2703 -12.2133 -12.1568 -11.6786 -11.6265
    -9.9095  -8.9633  -7.7579  -7.3809  -6.5648  -6.4671  -6.2395  -6.1253

          k = 0.2421 0.1535 0.0000 ( 18132 PWs)   bands (ev):

   -24.5482 -24.1222 -23.6519 -23.2612 -12.1114 -11.9734 -11.9408 -11.7158
    -9.8176  -8.8670  -7.9249  -7.4337  -6.4338  -6.3512  -6.2752  -6.2372

          k = 0.2882-0.7053 0.0000 ( 18147 PWs)   bands (ev):

   -24.3214 -23.9458 -23.8742 -23.5076 -12.2264 -12.1900 -11.6915 -11.5199
    -9.4564  -8.6353  -8.2856  -7.8810  -6.5328  -6.4138  -6.1516  -6.0832

          k = 0.2728-0.4190 0.0000 ( 18128 PWs)   bands (ev):

   -24.3194 -23.9270 -23.8768 -23.5262 -12.2825 -12.2634 -11.5479 -11.4676
    -9.5821  -8.8115  -8.0276  -7.8362  -6.5976  -6.4692  -6.1208  -6.0612

          k =-0.5150 0.2656 0.0000 ( 18184 PWs)   bands (ev):

   -24.3117 -23.9329 -23.8708 -23.5336 -12.2964 -12.2544 -11.5567 -11.4756
    -9.5892  -8.8354  -8.0085  -7.7747  -6.6096  -6.4602  -6.1494  -6.0544

          k =-0.5303 0.5518 0.0000 ( 18128 PWs)   bands (ev):

   -24.3140 -23.9493 -23.8711 -23.5142 -12.2445 -12.2050 -11.6803 -11.5218
    -9.4355  -8.6221  -8.2929  -7.8863  -6.5257  -6.4112  -6.1482  -6.0890

          k =-0.4843-0.3070 0.0000 ( 18166 PWs)   bands (ev):

   -24.3151 -23.9697 -23.8661 -23.4975 -12.1543 -11.9877 -11.9607 -11.6124
    -9.2671  -8.6882  -8.1939  -8.0718  -6.3841  -6.3174  -6.2224  -6.2103

     highest occupied level (ev):    -6.0486

!    total energy              =    -176.32067963 Ry
     estimated scf accuracy    <          4.6E-11 Ry

     convergence has been achieved in  10 iterations

     negative rho (up, down):  4.843E-04 0.000E+00

     Forces acting on atoms (cartesian axes, Ry/au):

     atom    1 type  1   force =    -0.00009260    0.00011771    0.00107533
     atom    2 type  1   force =     0.00044319   -0.00014286    0.00054051
     atom    3 type  1   force =     0.00023201   -0.00120348   -0.00074599
     atom    4 type  1   force =    -0.00071475    0.00007698   -0.00062073
     atom    5 type  1   force =     0.00054339    0.00020814   -0.00203180
     atom    6 type  1   force =     0.00003120    0.00052028   -0.00012976
     atom    7 type  1   force =    -0.00002750    0.00103390    0.00049863
     atom    8 type  1   force =     0.00010425   -0.00069955    0.00038638
     atom    9 type  2   force =    -0.00056619    0.00064650    0.00010963
     atom   10 type  2   force =    -0.00002552   -0.00106771    0.00087159
     atom   11 type  2   force =    -0.00036493    0.00089764    0.00057332
     atom   12 type  2   force =     0.00043746   -0.00038755   -0.00052711

     Total force =     0.003989     Total SCF correction =     0.000007

     Entering Dynamics:    iteration =    42

     <vel(dt)|acc(dt)> =   0.19277807

ATOMIC_POSITIONS (angstrom)
H             4.4672625210        3.7152271150       11.1961877443
H             5.3173990972        4.2930791819        9.9931980682
H             3.3088612252        1.1835406128        8.0957088923
H             3.1476011695        2.8732854572        9.3469707189
H             4.0019155891        3.4531356824        8.1453915551
H             6.3437696513        4.0086352203        8.0987269593
H             2.9917770539        1.7917368586       11.2450624500
H             2.1227172311        3.1605218768       11.2385163814
O             5.2836087619        4.2543005900       10.9937661036
O             3.1846913631        2.9141285733        8.3466095939
O             5.4360558791        4.3963327693        8.2562865547
O             3.0297269083        2.7741828205       11.0832610563



     Writing config-only to output data dir ./output/f-BH.save/
     NEW-OLD atomic charge density approx. for the potential

     negative rho (up, down):  4.830E-04 0.000E+00

     total cpu time spent up to now is     3027.5 secs

     per-process dynamical memory:   210.2 Mb

     Self-consistent Calculation

     iteration #  1     ecut=    60.00 Ry     beta= 0.70
     Davidson diagonalization with overlap
     ethr =  1.00E-06,  avg # of iterations =  3.0

     Threshold (ethr) on eigenvalues was too large:
     Diagonalizing with lowered threshold

     Davidson diagonalization with overlap
     ethr =  7.37E-08,  avg # of iterations =  1.6

     negative rho (up, down):  4.842E-04 0.000E+00

     total cpu time spent up to now is     3038.3 secs

     total energy              =    -176.32069335 Ry
     estimated scf accuracy    <       0.00002536 Ry

     iteration #  2     ecut=    60.00 Ry     beta= 0.70
     Davidson diagonalization with overlap
     ethr =  7.92E-08,  avg # of iterations =  2.0

     negative rho (up, down):  4.843E-04 0.000E+00

     total cpu time spent up to now is     3043.7 secs

     total energy              =    -176.32069768 Ry
     estimated scf accuracy    <       0.00000294 Ry

     iteration #  3     ecut=    60.00 Ry     beta= 0.70
     Davidson diagonalization with overlap
     ethr =  9.18E-09,  avg # of iterations =  2.0

     negative rho (up, down):  4.844E-04 0.000E+00

     total cpu time spent up to now is     3049.4 secs

     total energy              =    -176.32069829 Ry
     estimated scf accuracy    <       0.00000036 Ry

     iteration #  4     ecut=    60.00 Ry     beta= 0.70
     Davidson diagonalization with overlap
     ethr =  1.13E-09,  avg # of iterations =  2.0

     negative rho (up, down):  4.844E-04 0.000E+00

     total cpu time spent up to now is     3054.6 secs

     total energy              =    -176.32069835 Ry
     estimated scf accuracy    <       0.00000002 Ry

     iteration #  5     ecut=    60.00 Ry     beta= 0.70
     Davidson diagonalization with overlap
     ethr =  7.03E-11,  avg # of iterations =  2.0

     negative rho (up, down):  4.844E-04 0.000E+00

     total cpu time spent up to now is     3060.3 secs

     total energy              =    -176.32069835 Ry
     estimated scf accuracy    <          2.0E-09 Ry

     iteration #  6     ecut=    60.00 Ry     beta= 0.70
     Davidson diagonalization with overlap
     ethr =  6.20E-12,  avg # of iterations =  2.2

     negative rho (up, down):  4.844E-04 0.000E+00

     total cpu time spent up to now is     3066.0 secs

     total energy              =    -176.32069836 Ry
     estimated scf accuracy    <          1.3E-10 Ry

     iteration #  7     ecut=    60.00 Ry     beta= 0.70
     Davidson diagonalization with overlap
     ethr =  3.91E-13,  avg # of iterations =  3.1

     negative rho (up, down):  4.844E-04 0.000E+00

     total cpu time spent up to now is     3071.7 secs

     End of self-consistent calculation

          k = 0.0000 0.0000 0.0000 ( 18047 PWs)   bands (ev):

   -24.6780 -24.2411 -23.4763 -23.1011 -12.0625 -11.9375 -11.9074 -11.8513
   -10.1419  -9.0302  -7.5577  -7.0422  -6.4483  -6.4387  -6.3344  -6.1970

          k =-0.0153 0.2863 0.0000 ( 18132 PWs)   bands (ev):

   -24.5420 -24.1092 -23.6472 -23.2646 -12.1836 -12.1317 -11.7099 -11.6120
    -9.9159  -8.9563  -7.7449  -7.3638  -6.5669  -6.4566  -6.2336  -6.1149

          k = 0.0307-0.5725 0.0000 ( 18166 PWs)   bands (ev):

   -24.3155 -23.9081 -23.8855 -23.5195 -12.2423 -12.2325 -11.5800 -11.4637
    -9.6175  -8.8483  -7.9805  -7.7531  -6.6205  -6.4531  -6.1448  -6.0439

          k = 0.2575-0.1328 0.0000 ( 18109 PWs)   bands (ev):

   -24.5397 -24.1072 -23.6489 -23.2663 -12.2100 -12.1514 -11.6736 -11.6289
    -9.9000  -8.9505  -7.7463  -7.3606  -6.5570  -6.4585  -6.2296  -6.1198

          k = 0.2421 0.1535 0.0000 ( 18132 PWs)   bands (ev):

   -24.5408 -24.1145 -23.6489 -23.2577 -12.1058 -11.9734 -11.9362 -11.7153
    -9.8038  -8.8459  -7.9208  -7.4216  -6.4330  -6.3328  -6.2566  -6.2392

          k = 0.2882-0.7053 0.0000 ( 18147 PWs)   bands (ev):

   -24.3128 -23.9214 -23.8879 -23.5052 -12.2181 -12.1841 -11.6936 -11.5211
    -9.4466  -8.6170  -8.2725  -7.8649  -6.5308  -6.4071  -6.1390  -6.0753

          k = 0.2728-0.4190 0.0000 ( 18128 PWs)   bands (ev):

   -24.3112 -23.9119 -23.8813 -23.5232 -12.2777 -12.2545 -11.5490 -11.4683
    -9.5779  -8.8042  -8.0068  -7.8093  -6.5947  -6.4628  -6.1104  -6.0551

          k =-0.5150 0.2656 0.0000 ( 18184 PWs)   bands (ev):

   -24.3060 -23.9166 -23.8765 -23.5277 -12.2939 -12.2471 -11.5526 -11.4784
    -9.5880  -8.8337  -7.9853  -7.7422  -6.6039  -6.4568  -6.1397  -6.0459

          k =-0.5303 0.5518 0.0000 ( 18128 PWs)   bands (ev):

   -24.3080 -23.9248 -23.8846 -23.5091 -12.2411 -12.1991 -11.6784 -11.5229
    -9.4298  -8.6120  -8.2761  -7.8627  -6.5213  -6.4081  -6.1361  -6.0776

          k =-0.4843-0.3070 0.0000 ( 18166 PWs)   bands (ev):

   -24.3087 -23.9437 -23.8808 -23.4933 -12.1486 -11.9825 -11.9615 -11.6131
    -9.2556  -8.6570  -8.1999  -8.0547  -6.3835  -6.3188  -6.2045  -6.1928

     highest occupied level (ev):    -6.0439

!    total energy              =    -176.32069836 Ry
     estimated scf accuracy    <          1.9E-11 Ry

     convergence has been achieved in   7 iterations

     negative rho (up, down):  4.844E-04 0.000E+00

     Forces acting on atoms (cartesian axes, Ry/au):

     atom    1 type  1   force =     0.00079221    0.00083725   -0.00004071
     atom    2 type  1   force =    -0.00036828   -0.00011430    0.00010908
     atom    3 type  1   force =    -0.00002781    0.00360644   -0.00093229
     atom    4 type  1   force =     0.00084598    0.00060214   -0.00013121
     atom    5 type  1   force =    -0.00130675   -0.00100078    0.00040267
     atom    6 type  1   force =    -0.00099877    0.00033009    0.00011652
     atom    7 type  1   force =     0.00068622   -0.00191297    0.00046373
     atom    8 type  1   force =    -0.00099402    0.00104857    0.00044151
     atom    9 type  2   force =    -0.00055297   -0.00019645    0.00173741
     atom   10 type  2   force =     0.00015804    0.00028088   -0.00218619
     atom   11 type  2   force =     0.00140389   -0.00445504    0.00035194
     atom   12 type  2   force =     0.00036226    0.00097417   -0.00033248

     Total force =     0.007646     Total SCF correction =     0.000006

     Entering Dynamics:    iteration =    43

     <vel(dt)|acc(dt)> =   0.06619454

ATOMIC_POSITIONS (angstrom)
H             4.4675781419        3.7165633414       11.1957856302
H             5.3175442440        4.2937732414        9.9929829106
H             3.3079817764        1.1829179106        8.0955784599
H             3.1477428848        2.8728786130        9.3468773871
H             4.0017288099        3.4520176650        8.1457909342
H             6.3427738775        4.0075179011        8.0985911092
H             2.9927187283        1.7923450018       11.2452786064
H             2.1232348870        3.1619473366       11.2387466702
O             5.2839572131        4.2550865783       10.9937567327
O             3.1841452457        2.9134299490        8.3465392853
O             5.4353985512        4.3943915197        8.2560167818
O             3.0305820908        2.7752377003       11.0837415702



     Writing config-only to output data dir ./output/f-BH.save/
     NEW-OLD atomic charge density approx. for the potential

     negative rho (up, down):  4.845E-04 0.000E+00

     total cpu time spent up to now is     3084.3 secs

     per-process dynamical memory:   210.2 Mb

     Self-consistent Calculation

     iteration #  1     ecut=    60.00 Ry     beta= 0.70
     Davidson diagonalization with overlap
     ethr =  1.00E-06,  avg # of iterations =  2.0

     Threshold (ethr) on eigenvalues was too large:
     Diagonalizing with lowered threshold

     Davidson diagonalization with overlap
     ethr =  1.00E-08,  avg # of iterations =  3.1

     negative rho (up, down):  4.844E-04 0.000E+00

     total cpu time spent up to now is     3095.8 secs

     total energy              =    -176.32071249 Ry
     estimated scf accuracy    <       0.00000446 Ry

     iteration #  2     ecut=    60.00 Ry     beta= 0.70
     Davidson diagonalization with overlap
     ethr =  1.39E-08,  avg # of iterations =  2.0

     negative rho (up, down):  4.844E-04 0.000E+00

     total cpu time spent up to now is     3101.2 secs

     total energy              =    -176.32071310 Ry
     estimated scf accuracy    <       0.00000040 Ry

     iteration #  3     ecut=    60.00 Ry     beta= 0.70
     Davidson diagonalization with overlap
     ethr =  1.26E-09,  avg # of iterations =  2.1

     negative rho (up, down):  4.844E-04 0.000E+00

     total cpu time spent up to now is     3106.9 secs

     total energy              =    -176.32071319 Ry
     estimated scf accuracy    <       0.00000011 Ry

     iteration #  4     ecut=    60.00 Ry     beta= 0.70
     Davidson diagonalization with overlap
     ethr =  3.58E-10,  avg # of iterations =  2.1

     negative rho (up, down):  4.844E-04 0.000E+00

     total cpu time spent up to now is     3112.1 secs

     total energy              =    -176.32071321 Ry
     estimated scf accuracy    <          3.8E-09 Ry

     iteration #  5     ecut=    60.00 Ry     beta= 0.70
     Davidson diagonalization with overlap
     ethr =  1.20E-11,  avg # of iterations =  3.0

     negative rho (up, down):  4.844E-04 0.000E+00

     total cpu time spent up to now is     3118.4 secs

     total energy              =    -176.32071321 Ry
     estimated scf accuracy    <          2.2E-09 Ry

     iteration #  6     ecut=    60.00 Ry     beta= 0.70
     Davidson diagonalization with overlap
     ethr =  6.77E-12,  avg # of iterations =  2.0

     negative rho (up, down):  4.844E-04 0.000E+00

     total cpu time spent up to now is     3123.7 secs

     total energy              =    -176.32071321 Ry
     estimated scf accuracy    <          2.0E-10 Ry

     iteration #  7     ecut=    60.00 Ry     beta= 0.70
     Davidson diagonalization with overlap
     ethr =  6.20E-13,  avg # of iterations =  3.6

     negative rho (up, down):  4.844E-04 0.000E+00

     total cpu time spent up to now is     3130.6 secs

     total energy              =    -176.32071321 Ry
     estimated scf accuracy    <          1.5E-10 Ry

     iteration #  8     ecut=    60.00 Ry     beta= 0.70
     Davidson diagonalization with overlap
     ethr =  4.61E-13,  avg # of iterations =  2.0

     negative rho (up, down):  4.844E-04 0.000E+00

     total cpu time spent up to now is     3135.9 secs

     End of self-consistent calculation

          k = 0.0000 0.0000 0.0000 ( 18047 PWs)   bands (ev):

   -24.6778 -24.2408 -23.4757 -23.1002 -12.0599 -11.9337 -11.9073 -11.8515
   -10.1437  -9.0338  -7.5571  -7.0425  -6.4493  -6.4390  -6.3361  -6.1965

          k =-0.0153 0.2863 0.0000 ( 18132 PWs)   bands (ev):

   -24.5419 -24.1090 -23.6465 -23.2637 -12.1827 -12.1310 -11.7067 -11.6115
    -9.9167  -8.9594  -7.7452  -7.3649  -6.5668  -6.4574  -6.2345  -6.1150

          k = 0.0307-0.5725 0.0000 ( 18166 PWs)   bands (ev):

   -24.3159 -23.9069 -23.8858 -23.5179 -12.2427 -12.2314 -11.5767 -11.4632
    -9.6170  -8.8503  -7.9823  -7.7547  -6.6197  -6.4537  -6.1456  -6.0443

          k = 0.2575-0.1328 0.0000 ( 18109 PWs)   bands (ev):

   -24.5395 -24.1068 -23.6484 -23.2655 -12.2074 -12.1501 -11.6734 -11.6270
    -9.9016  -8.9535  -7.7464  -7.3618  -6.5577  -6.4585  -6.2302  -6.1200

          k = 0.2421 0.1535 0.0000 ( 18132 PWs)   bands (ev):

   -24.5404 -24.1140 -23.6485 -23.2572 -12.1032 -11.9710 -11.9349 -11.7150
    -9.8054  -8.8496  -7.9206  -7.4224  -6.4330  -6.3340  -6.2581  -6.2387

          k = 0.2882-0.7053 0.0000 ( 18147 PWs)   bands (ev):

   -24.3125 -23.9232 -23.8851 -23.5046 -12.2171 -12.1830 -11.6909 -11.5201
    -9.4468  -8.6197  -8.2737  -7.8666  -6.5303  -6.4075  -6.1399  -6.0759

          k = 0.2728-0.4190 0.0000 ( 18128 PWs)   bands (ev):

   -24.3113 -23.9112 -23.8810 -23.5220 -12.2759 -12.2541 -11.5470 -11.4674
    -9.5783  -8.8060  -8.0084  -7.8113  -6.5946  -6.4628  -6.1109  -6.0555

          k =-0.5150 0.2656 0.0000 ( 18184 PWs)   bands (ev):

   -24.3059 -23.9164 -23.8757 -23.5269 -12.2910 -12.2462 -11.5523 -11.4766
    -9.5894  -8.8356  -7.9863  -7.7442  -6.6044  -6.4563  -6.1401  -6.0465

          k =-0.5303 0.5518 0.0000 ( 18128 PWs)   bands (ev):

   -24.3073 -23.9266 -23.8818 -23.5089 -12.2385 -12.1976 -11.6771 -11.5219
    -9.4311  -8.6146  -8.2767  -7.8644  -6.5216  -6.4078  -6.1367  -6.0785

          k =-0.4843-0.3070 0.0000 ( 18166 PWs)   bands (ev):

   -24.3076 -23.9457 -23.8778 -23.4936 -12.1461 -11.9800 -11.9601 -11.6125
    -9.2565  -8.6604  -8.2002  -8.0565  -6.3834  -6.3187  -6.2054  -6.1941

     highest occupied level (ev):    -6.0443

!    total energy              =    -176.32071321 Ry
     estimated scf accuracy    <          3.4E-12 Ry

     convergence has been achieved in   8 iterations

     negative rho (up, down):  4.844E-04 0.000E+00

     Forces acting on atoms (cartesian axes, Ry/au):

     atom    1 type  1   force =     0.00035358    0.00047940    0.00020381
     atom    2 type  1   force =    -0.00030293   -0.00017417    0.00036233
     atom    3 type  1   force =    -0.00009271    0.00183062   -0.00064146
     atom    4 type  1   force =     0.00067616    0.00054884    0.00000133
     atom    5 type  1   force =    -0.00120928   -0.00094955    0.00017108
     atom    6 type  1   force =    -0.00018255   -0.00003770   -0.00003946
     atom    7 type  1   force =     0.00060536   -0.00132132    0.00041401
     atom    8 type  1   force =    -0.00048053    0.00068575    0.00036011
     atom    9 type  2   force =    -0.00007591    0.00021051    0.00125560
     atom   10 type  2   force =     0.00024831    0.00005306   -0.00208675
     atom   11 type  2   force =     0.00062473   -0.00201440    0.00023812
     atom   12 type  2   force =    -0.00016423    0.00068896   -0.00023872

     Total force =     0.004673     Total SCF correction =     0.000003

     Entering Dynamics:    iteration =    44

     <vel(dt)|acc(dt)> =   0.97065052

ATOMIC_POSITIONS (angstrom)
H             4.4678364294        3.7195846074       11.1955056742
H             5.3179119870        4.2952021088        9.9930846468
H             3.3059222568        1.1808971436        8.0948929091
H             3.1479385485        2.8719758120        9.3465945100
H             4.0011979924        3.4491515255        8.1459079298
H             6.3410313429        4.0050960173        8.0982703072
H             2.9950553406        1.7939378153       11.2460024363
H             2.1246234757        3.1645539123       11.2394035729
O             5.2847919498        4.2572133600       10.9940622815
O             3.1832682572        2.9116072825        8.3457744118
O             5.4335854302        4.3912196783        8.2556244835
O             3.0322234403        2.7776674951       11.0845629149



     Writing config-only to output data dir ./output/f-BH.save/
     NEW-OLD atomic charge density approx. for the potential

     negative rho (up, down):  4.846E-04 0.000E+00

     total cpu time spent up to now is     3148.5 secs

     per-process dynamical memory:   210.2 Mb

     Self-consistent Calculation

     iteration #  1     ecut=    60.00 Ry     beta= 0.70
     Davidson diagonalization with overlap
     ethr =  1.00E-06,  avg # of iterations =  3.0

     Threshold (ethr) on eigenvalues was too large:
     Diagonalizing with lowered threshold

     Davidson diagonalization with overlap
     ethr =  4.32E-08,  avg # of iterations =  2.1

     negative rho (up, down):  4.845E-04 0.000E+00

     total cpu time spent up to now is     3160.0 secs

     total energy              =    -176.32072595 Ry
     estimated scf accuracy    <       0.00001542 Ry

     iteration #  2     ecut=    60.00 Ry     beta= 0.70
     Davidson diagonalization with overlap
     ethr =  4.82E-08,  avg # of iterations =  2.0

     negative rho (up, down):  4.846E-04 0.000E+00

     total cpu time spent up to now is     3165.3 secs

     total energy              =    -176.32072783 Ry
     estimated scf accuracy    <       0.00000114 Ry

     iteration #  3     ecut=    60.00 Ry     beta= 0.70
     Davidson diagonalization with overlap
     ethr =  3.56E-09,  avg # of iterations =  2.0

     negative rho (up, down):  4.846E-04 0.000E+00

     total cpu time spent up to now is     3170.9 secs

     total energy              =    -176.32072804 Ry
     estimated scf accuracy    <       0.00000033 Ry

     iteration #  4     ecut=    60.00 Ry     beta= 0.70
     Davidson diagonalization with overlap
     ethr =  1.02E-09,  avg # of iterations =  2.0

     negative rho (up, down):  4.846E-04 0.000E+00

     total cpu time spent up to now is     3176.4 secs

     total energy              =    -176.32072810 Ry
     estimated scf accuracy    <       0.00000001 Ry

     iteration #  5     ecut=    60.00 Ry     beta= 0.70
     Davidson diagonalization with overlap
     ethr =  4.53E-11,  avg # of iterations =  2.2

     negative rho (up, down):  4.846E-04 0.000E+00

     total cpu time spent up to now is     3182.1 secs

     total energy              =    -176.32072810 Ry
     estimated scf accuracy    <          4.4E-09 Ry

     iteration #  6     ecut=    60.00 Ry     beta= 0.70
     Davidson diagonalization with overlap
     ethr =  1.37E-11,  avg # of iterations =  2.0

     negative rho (up, down):  4.846E-04 0.000E+00

     total cpu time spent up to now is     3187.2 secs

     total energy              =    -176.32072810 Ry
     estimated scf accuracy    <          5.0E-10 Ry

     iteration #  7     ecut=    60.00 Ry     beta= 0.70
     Davidson diagonalization with overlap
     ethr =  1.56E-12,  avg # of iterations =  3.0

     negative rho (up, down):  4.846E-04 0.000E+00

     total cpu time spent up to now is     3193.4 secs

     total energy              =    -176.32072810 Ry
     estimated scf accuracy    <          1.5E-10 Ry

     iteration #  8     ecut=    60.00 Ry     beta= 0.70
     Davidson diagonalization with overlap
     ethr =  4.83E-13,  avg # of iterations =  2.0

     negative rho (up, down):  4.846E-04 0.000E+00

     total cpu time spent up to now is     3198.7 secs

     End of self-consistent calculation

          k = 0.0000 0.0000 0.0000 ( 18047 PWs)   bands (ev):

   -24.6765 -24.2399 -23.4741 -23.0986 -12.0560 -11.9277 -11.9050 -11.8497
   -10.1461  -9.0395  -7.5560  -7.0425  -6.4496  -6.4396  -6.3379  -6.1957

          k =-0.0153 0.2863 0.0000 ( 18132 PWs)   bands (ev):

   -24.5407 -24.1082 -23.6447 -23.2618 -12.1802 -12.1290 -11.7007 -11.6091
    -9.9175  -8.9641  -7.7454  -7.3657  -6.5663  -6.4583  -6.2354  -6.1150

          k = 0.0307-0.5725 0.0000 ( 18166 PWs)   bands (ev):

   -24.3154 -23.9056 -23.8846 -23.5153 -12.2416 -12.2292 -11.5708 -11.4608
    -9.6160  -8.8528  -7.9850  -7.7564  -6.6185  -6.4545  -6.1464  -6.0448

          k = 0.2575-0.1328 0.0000 ( 18109 PWs)   bands (ev):

   -24.5383 -24.1060 -23.6466 -23.2637 -12.2031 -12.1477 -11.6707 -11.6225
    -9.9038  -8.9584  -7.7465  -7.3630  -6.5586  -6.4579  -6.2303  -6.1199

          k = 0.2421 0.1535 0.0000 ( 18132 PWs)   bands (ev):

   -24.5388 -24.1129 -23.6471 -23.2561 -12.0995 -11.9658 -11.9319 -11.7121
    -9.8075  -8.8555  -7.9198  -7.4231  -6.4330  -6.3348  -6.2594  -6.2383

          k = 0.2882-0.7053 0.0000 ( 18147 PWs)   bands (ev):

   -24.3110 -23.9246 -23.8810 -23.5036 -12.2148 -12.1799 -11.6858 -11.5167
    -9.4468  -8.6239  -8.2751  -7.8686  -6.5294  -6.4080  -6.1409  -6.0765

          k = 0.2728-0.4190 0.0000 ( 18128 PWs)   bands (ev):

   -24.3107 -23.9099 -23.8798 -23.5196 -12.2724 -12.2529 -11.5424 -11.4641
    -9.5786  -8.8087  -8.0110  -7.8134  -6.5944  -6.4624  -6.1111  -6.0556

          k =-0.5150 0.2656 0.0000 ( 18184 PWs)   bands (ev):

   -24.3052 -23.9151 -23.8744 -23.5246 -12.2864 -12.2446 -11.5496 -11.4723
    -9.5913  -8.8387  -7.9881  -7.7465  -6.6048  -6.4553  -6.1397  -6.0465

          k =-0.5303 0.5518 0.0000 ( 18128 PWs)   bands (ev):

   -24.3057 -23.9278 -23.8779 -23.5081 -12.2345 -12.1946 -11.6734 -11.5181
    -9.4328  -8.6192  -8.2774  -7.8666  -6.5219  -6.4072  -6.1368  -6.0790

          k =-0.4843-0.3070 0.0000 ( 18166 PWs)   bands (ev):

   -24.3050 -23.9472 -23.8736 -23.4939 -12.1425 -11.9765 -11.9548 -11.6092
    -9.2576  -8.6660  -8.2006  -8.0586  -6.3832  -6.3186  -6.2062  -6.1950

     highest occupied level (ev):    -6.0448

!    total energy              =    -176.32072810 Ry
     estimated scf accuracy    <          6.0E-12 Ry

     convergence has been achieved in   8 iterations

     negative rho (up, down):  4.846E-04 0.000E+00

     Forces acting on atoms (cartesian axes, Ry/au):

     atom    1 type  1   force =     0.00014943    0.00022321    0.00049406
     atom    2 type  1   force =    -0.00018669   -0.00020323    0.00054959
     atom    3 type  1   force =    -0.00013414    0.00019875   -0.00036839
     atom    4 type  1   force =     0.00042289    0.00046941   -0.00053016
     atom    5 type  1   force =    -0.00061122   -0.00048301   -0.00033988
     atom    6 type  1   force =     0.00010583   -0.00015603   -0.00011113
     atom    7 type  1   force =     0.00044491   -0.00022465    0.00026890
     atom    8 type  1   force =    -0.00013757    0.00032173    0.00031024
     atom    9 type  2   force =     0.00014457    0.00049965    0.00080045
     atom   10 type  2   force =    -0.00024615   -0.00054165   -0.00097885
     atom   11 type  2   force =     0.00052201    0.00004354    0.00007436
     atom   12 type  2   force =    -0.00047386   -0.00014771   -0.00016920

     Total force =     0.002378     Total SCF correction =     0.000003

     Entering Dynamics:    iteration =    45

     <vel(dt)|acc(dt)> =   0.93279384

ATOMIC_POSITIONS (angstrom)
H             4.4675891991        3.7240758312       11.1966907820
H             5.3184604742        4.2968429489        9.9946539171
H             3.3030201231        1.1781435370        8.0926720489
H             3.1481225677        2.8710801588        9.3449194923
H             4.0006713565        3.4448326056        8.1437378526
H             6.3386061835        4.0026759824        8.0979166047
H             2.9988603047        1.7964897752       11.2476654740
H             2.1264958523        3.1669795521       11.2408925607
O             5.2852520738        4.2606289852       10.9960081487
O             3.1823487269        2.9083121811        8.3438196583
O             5.4316654926        4.3873602830        8.2558717354
O             3.0342940965        2.7806849177       11.0848378031



     Writing config-only to output data dir ./output/f-BH.save/
     NEW-OLD atomic charge density approx. for the potential

     negative rho (up, down):  4.844E-04 0.000E+00

     total cpu time spent up to now is     3211.5 secs

     per-process dynamical memory:   210.2 Mb

     Self-consistent Calculation

     iteration #  1     ecut=    60.00 Ry     beta= 0.70
     Davidson diagonalization with overlap
     ethr =  1.00E-06,  avg # of iterations =  3.0

     Threshold (ethr) on eigenvalues was too large:
     Diagonalizing with lowered threshold

     Davidson diagonalization with overlap
     ethr =  7.82E-08,  avg # of iterations =  2.1

     negative rho (up, down):  4.847E-04 0.000E+00

     total cpu time spent up to now is     3223.0 secs

     total energy              =    -176.32074262 Ry
     estimated scf accuracy    <       0.00002811 Ry

     iteration #  2     ecut=    60.00 Ry     beta= 0.70
     Davidson diagonalization with overlap
     ethr =  8.78E-08,  avg # of iterations =  2.0

     negative rho (up, down):  4.849E-04 0.000E+00

     total cpu time spent up to now is     3228.2 secs

     total energy              =    -176.32074578 Ry
     estimated scf accuracy    <       0.00000152 Ry

     iteration #  3     ecut=    60.00 Ry     beta= 0.70
     Davidson diagonalization with overlap
     ethr =  4.76E-09,  avg # of iterations =  2.0

     negative rho (up, down):  4.849E-04 0.000E+00

     total cpu time spent up to now is     3233.7 secs

     total energy              =    -176.32074600 Ry
     estimated scf accuracy    <       0.00000027 Ry

     iteration #  4     ecut=    60.00 Ry     beta= 0.70
     Davidson diagonalization with overlap
     ethr =  8.41E-10,  avg # of iterations =  2.0

     negative rho (up, down):  4.849E-04 0.000E+00

     total cpu time spent up to now is     3239.3 secs

     total energy              =    -176.32074607 Ry
     estimated scf accuracy    <       0.00000003 Ry

     iteration #  5     ecut=    60.00 Ry     beta= 0.70
     Davidson diagonalization with overlap
     ethr =  9.71E-11,  avg # of iterations =  2.0

     negative rho (up, down):  4.849E-04 0.000E+00

     total cpu time spent up to now is     3244.7 secs

     total energy              =    -176.32074607 Ry
     estimated scf accuracy    <          3.5E-09 Ry

     iteration #  6     ecut=    60.00 Ry     beta= 0.70
     Davidson diagonalization with overlap
     ethr =  1.10E-11,  avg # of iterations =  2.0

     negative rho (up, down):  4.849E-04 0.000E+00

     total cpu time spent up to now is     3250.4 secs

     total energy              =    -176.32074607 Ry
     estimated scf accuracy    <          1.4E-10 Ry

     iteration #  7     ecut=    60.00 Ry     beta= 0.70
     Davidson diagonalization with overlap
     ethr =  4.30E-13,  avg # of iterations =  3.4

     negative rho (up, down):  4.849E-04 0.000E+00

     total cpu time spent up to now is     3257.2 secs

     total energy              =    -176.32074607 Ry
     estimated scf accuracy    <          1.0E-10 Ry

     iteration #  8     ecut=    60.00 Ry     beta= 0.70
     Davidson diagonalization with overlap
     ethr =  3.17E-13,  avg # of iterations =  2.0

     negative rho (up, down):  4.849E-04 0.000E+00

     total cpu time spent up to now is     3262.7 secs

     End of self-consistent calculation

          k = 0.0000 0.0000 0.0000 ( 18047 PWs)   bands (ev):

   -24.6721 -24.2374 -23.4700 -23.0954 -12.0500 -11.9188 -11.8993 -11.8449
   -10.1452  -9.0429  -7.5535  -7.0391  -6.4458  -6.4382  -6.3360  -6.1941

          k =-0.0153 0.2863 0.0000 ( 18132 PWs)   bands (ev):

   -24.5364 -24.1058 -23.6405 -23.2587 -12.1753 -12.1246 -11.6912 -11.6036
    -9.9144  -8.9654  -7.7445  -7.3634  -6.5638  -6.4569  -6.2330  -6.1136

          k = 0.0307-0.5725 0.0000 ( 18166 PWs)   bands (ev):

   -24.3113 -23.9024 -23.8812 -23.5120 -12.2383 -12.2245 -11.5613 -11.4553
    -9.6100  -8.8501  -7.9878  -7.7560  -6.6162  -6.4537  -6.1440  -6.0431

          k = 0.2575-0.1328 0.0000 ( 18109 PWs)   bands (ev):

   -24.5342 -24.1038 -23.6421 -23.2603 -12.1958 -12.1424 -11.6650 -11.6152
    -9.9041  -8.9618  -7.7442  -7.3597  -6.5573  -6.4552  -6.2274  -6.1171

          k = 0.2421 0.1535 0.0000 ( 18132 PWs)   bands (ev):

   -24.5343 -24.1101 -23.6431 -23.2535 -12.0936 -11.9567 -11.9266 -11.7058
    -9.8066  -8.8590  -7.9173  -7.4207  -6.4311  -6.3319  -6.2569  -6.2372

          k = 0.2882-0.7053 0.0000 ( 18147 PWs)   bands (ev):

   -24.3063 -23.9223 -23.8763 -23.5014 -12.2105 -12.1741 -11.6772 -11.5102
    -9.4427  -8.6239  -8.2754  -7.8686  -6.5274  -6.4067  -6.1384  -6.0747

          k = 0.2728-0.4190 0.0000 ( 18128 PWs)   bands (ev):

   -24.3070 -23.9060 -23.8771 -23.5158 -12.2660 -12.2491 -11.5345 -11.4578
    -9.5766  -8.8089  -8.0117  -7.8109  -6.5930  -6.4608  -6.1081  -6.0529

          k =-0.5150 0.2656 0.0000 ( 18184 PWs)   bands (ev):

   -24.3020 -23.9105 -23.8723 -23.5203 -12.2783 -12.2401 -11.5435 -11.4650
    -9.5935  -8.8418  -7.9862  -7.7420  -6.6036  -6.4537  -6.1359  -6.0430

          k =-0.5303 0.5518 0.0000 ( 18128 PWs)   bands (ev):

   -24.3015 -23.9249 -23.8736 -23.5054 -12.2279 -12.1883 -11.6665 -11.5114
    -9.4337  -8.6232  -8.2743  -7.8635  -6.5207  -6.4057  -6.1335  -6.0759

          k =-0.4843-0.3070 0.0000 ( 18166 PWs)   bands (ev):

   -24.2998 -23.9446 -23.8689 -23.4927 -12.1367 -11.9712 -11.9449 -11.6027
    -9.2558  -8.6696  -8.1987  -8.0573  -6.3819  -6.3171  -6.2034  -6.1924

     highest occupied level (ev):    -6.0430

!    total energy              =    -176.32074607 Ry
     estimated scf accuracy    <          9.8E-13 Ry

     convergence has been achieved in   8 iterations

     negative rho (up, down):  4.849E-04 0.000E+00

     Forces acting on atoms (cartesian axes, Ry/au):

     atom    1 type  1   force =    -0.00009028   -0.00007343    0.00075620
     atom    2 type  1   force =    -0.00012855   -0.00015834    0.00103608
     atom    3 type  1   force =    -0.00019341   -0.00173174    0.00018661
     atom    4 type  1   force =     0.00024445    0.00029560   -0.00078148
     atom    5 type  1   force =    -0.00033872   -0.00024534   -0.00056020
     atom    6 type  1   force =     0.00116289   -0.00071006   -0.00034954
     atom    7 type  1   force =     0.00021645    0.00055954    0.00005764
     atom    8 type  1   force =     0.00015836    0.00006837    0.00023835
     atom    9 type  2   force =     0.00054952    0.00070730   -0.00000934
     atom   10 type  2   force =    -0.00041879   -0.00078868   -0.00038791
     atom   11 type  2   force =    -0.00038763    0.00275909   -0.00013245
     atom   12 type  2   force =    -0.00077429   -0.00068230   -0.00005396

     Total force =     0.004364     Total SCF correction =     0.000001

     Entering Dynamics:    iteration =    46

     <vel(dt)|acc(dt)> =   0.97792870

ATOMIC_POSITIONS (angstrom)
H             4.4667570258        3.7304575781       11.1996732967
H             5.3190578743        4.2988049508        9.9985030486
H             3.2990230570        1.1742452827        8.0888988934
H             3.1486006597        2.8701538199        9.3414226074
H             3.9997635516        3.4383732800        8.1392190491
H             6.3361400230        3.9996766372        8.0973804742
H             3.0045553485        1.7999214451       11.2502964308
H             2.1288113949        3.1695518180       11.2433804301
O             5.2856670480        4.2655508349       10.9997543426
O             3.1812215638        2.9033450778        8.3399041641
O             5.4291252399        4.3835142085        8.2566643083
O             3.0366636642        2.7845118249       11.0845890327



     Writing config-only to output data dir ./output/f-BH.save/
     NEW-OLD atomic charge density approx. for the potential

     negative rho (up, down):  4.842E-04 0.000E+00

     total cpu time spent up to now is     3275.4 secs

     per-process dynamical memory:   210.2 Mb

     Self-consistent Calculation

     iteration #  1     ecut=    60.00 Ry     beta= 0.70
     Davidson diagonalization with overlap
     ethr =  1.00E-06,  avg # of iterations =  4.0

     negative rho (up, down):  4.849E-04 0.000E+00

     total cpu time spent up to now is     3283.2 secs

     total energy              =    -176.32076250 Ry
     estimated scf accuracy    <       0.00004860 Ry

     iteration #  2     ecut=    60.00 Ry     beta= 0.70
     Davidson diagonalization with overlap
     ethr =  1.52E-07,  avg # of iterations =  2.0

     negative rho (up, down):  4.853E-04 0.000E+00

     total cpu time spent up to now is     3288.6 secs

     total energy              =    -176.32076987 Ry
     estimated scf accuracy    <       0.00000468 Ry

     iteration #  3     ecut=    60.00 Ry     beta= 0.70
     Davidson diagonalization with overlap
     ethr =  1.46E-08,  avg # of iterations =  3.1

     negative rho (up, down):  4.853E-04 0.000E+00

     total cpu time spent up to now is     3294.8 secs

     total energy              =    -176.32077093 Ry
     estimated scf accuracy    <       0.00000137 Ry

     iteration #  4     ecut=    60.00 Ry     beta= 0.70
     Davidson diagonalization with overlap
     ethr =  4.29E-09,  avg # of iterations =  2.4

     negative rho (up, down):  4.853E-04 0.000E+00

     total cpu time spent up to now is     3300.3 secs

     total energy              =    -176.32077121 Ry
     estimated scf accuracy    <       0.00000006 Ry

     iteration #  5     ecut=    60.00 Ry     beta= 0.70
     Davidson diagonalization with overlap
     ethr =  1.89E-10,  avg # of iterations =  3.0

     negative rho (up, down):  4.853E-04 0.000E+00

     total cpu time spent up to now is     3306.7 secs

     total energy              =    -176.32077122 Ry
     estimated scf accuracy    <       0.00000003 Ry

     iteration #  6     ecut=    60.00 Ry     beta= 0.70
     Davidson diagonalization with overlap
     ethr =  7.89E-11,  avg # of iterations =  2.0

     negative rho (up, down):  4.854E-04 0.000E+00

     total cpu time spent up to now is     3312.1 secs

     total energy              =    -176.32077122 Ry
     estimated scf accuracy    <          3.0E-09 Ry

     iteration #  7     ecut=    60.00 Ry     beta= 0.70
     Davidson diagonalization with overlap
     ethr =  9.50E-12,  avg # of iterations =  3.0

     negative rho (up, down):  4.853E-04 0.000E+00

     total cpu time spent up to now is     3318.6 secs

     total energy              =    -176.32077122 Ry
     estimated scf accuracy    <          5.6E-10 Ry

     iteration #  8     ecut=    60.00 Ry     beta= 0.70
     Davidson diagonalization with overlap
     ethr =  1.75E-12,  avg # of iterations =  2.0

     negative rho (up, down):  4.853E-04 0.000E+00

     total cpu time spent up to now is     3323.8 secs

     End of self-consistent calculation

          k = 0.0000 0.0000 0.0000 ( 18047 PWs)   bands (ev):

   -24.6651 -24.2340 -23.4632 -23.0909 -12.0408 -11.9076 -11.8910 -11.8357
   -10.1409  -9.0464  -7.5491  -7.0329  -6.4409  -6.4319  -6.3327  -6.1908

          k =-0.0153 0.2863 0.0000 ( 18132 PWs)   bands (ev):

   -24.5292 -24.1023 -23.6338 -23.2545 -12.1667 -12.1176 -11.6788 -11.5948
    -9.9075  -8.9654  -7.7425  -7.3586  -6.5593  -6.4543  -6.2278  -6.1104

          k = 0.0307-0.5725 0.0000 ( 18166 PWs)   bands (ev):

   -24.3035 -23.9001 -23.8733 -23.5084 -12.2303 -12.2179 -11.5489 -11.4466
    -9.5990  -8.8429  -7.9914  -7.7549  -6.6127  -6.4517  -6.1387  -6.0395

          k = 0.2575-0.1328 0.0000 ( 18109 PWs)   bands (ev):

   -24.5276 -24.1008 -23.6347 -23.2554 -12.1862 -12.1347 -11.6541 -11.6052
    -9.9014  -8.9650  -7.7405  -7.3540  -6.5538  -6.4511  -6.2213  -6.1110

          k = 0.2421 0.1535 0.0000 ( 18132 PWs)   bands (ev):

   -24.5272 -24.1065 -23.6362 -23.2496 -12.0846 -11.9446 -11.9177 -11.6969
    -9.8027  -8.8623  -7.9126  -7.4156  -6.4259  -6.3273  -6.2527  -6.2342

          k = 0.2882-0.7053 0.0000 ( 18147 PWs)   bands (ev):

   -24.2986 -23.9205 -23.8672 -23.4985 -12.2026 -12.1653 -11.6652 -11.5011
    -9.4343  -8.6215  -8.2748  -7.8672  -6.5238  -6.4038  -6.1334  -6.0707

          k = 0.2728-0.4190 0.0000 ( 18128 PWs)   bands (ev):

   -24.3006 -23.9020 -23.8708 -23.5107 -12.2568 -12.2425 -11.5225 -11.4485
    -9.5707  -8.8068  -8.0127  -7.8063  -6.5900  -6.4583  -6.1021  -6.0469

          k =-0.5150 0.2656 0.0000 ( 18184 PWs)   bands (ev):

   -24.2969 -23.9046 -23.8679 -23.5137 -12.2683 -12.2334 -11.5318 -11.4551
    -9.5931  -8.8446  -7.9839  -7.7345  -6.6002  -6.4516  -6.1282  -6.0357

          k =-0.5303 0.5518 0.0000 ( 18128 PWs)   bands (ev):

   -24.2951 -23.9221 -23.8654 -23.5010 -12.2193 -12.1788 -11.6550 -11.5019
    -9.4317  -8.6270  -8.2696  -7.8578  -6.5175  -6.4031  -6.1270  -6.0693

          k =-0.4843-0.3070 0.0000 ( 18166 PWs)   bands (ev):

   -24.2921 -23.9423 -23.8599 -23.4902 -12.1279 -11.9631 -11.9307 -11.5941
    -9.2506  -8.6751  -8.1922  -8.0541  -6.3782  -6.3129  -6.1994  -6.1877

     highest occupied level (ev):    -6.0357

!    total energy              =    -176.32077122 Ry
     estimated scf accuracy    <          5.4E-11 Ry

     convergence has been achieved in   8 iterations

     negative rho (up, down):  4.853E-04 0.000E+00

     Forces acting on atoms (cartesian axes, Ry/au):

     atom    1 type  1   force =    -0.00008165   -0.00024848    0.00095483
     atom    2 type  1   force =    -0.00004260    0.00004651    0.00084846
     atom    3 type  1   force =    -0.00015439   -0.00257949    0.00071250
     atom    4 type  1   force =    -0.00002086   -0.00003702   -0.00120664
     atom    5 type  1   force =     0.00027680    0.00033679   -0.00087768
     atom    6 type  1   force =     0.00101048   -0.00072490   -0.00039501
     atom    7 type  1   force =    -0.00017205    0.00147105   -0.00027995
     atom    8 type  1   force =     0.00038220   -0.00016512    0.00013645
     atom    9 type  2   force =     0.00069448    0.00059132   -0.00018388
     atom   10 type  2   force =    -0.00094968   -0.00093116    0.00060437
     atom   11 type  2   force =    -0.00009709    0.00349269   -0.00042263
     atom   12 type  2   force =    -0.00084566   -0.00125219    0.00010920

     Total force =     0.005758     Total SCF correction =     0.000009

     Entering Dynamics:    iteration =    47

     <vel(dt)|acc(dt)> =   0.96172222

ATOMIC_POSITIONS (angstrom)
H             4.4652785572        3.7380574905       11.2061562797
H             5.3196161492        4.3005753899       10.0055331360
H             3.2945611467        1.1695773624        8.0832073114
H             3.1492480579        2.8697280709        9.3349093460
H             3.9985267844        3.4305061151        8.1302478107
H             6.3339240011        3.9972482367        8.0965653817
H             3.0116330537        1.8043698564       11.2540830787
H             2.1312267184        3.1709788583       11.2472514355
O             5.2855309622        4.2719583402       11.0067032932
O             3.1798901823        2.8964001496        8.3335236188
O             5.4275151310        4.3807070863        8.2584783949
O             3.0384357067        2.7879998018       11.0830269912



     Writing config-only to output data dir ./output/f-BH.save/
     NEW-OLD atomic charge density approx. for the potential

     negative rho (up, down):  4.829E-04 0.000E+00

     total cpu time spent up to now is     3336.6 secs

     per-process dynamical memory:   210.2 Mb

     Self-consistent Calculation

     iteration #  1     ecut=    60.00 Ry     beta= 0.70
     Davidson diagonalization with overlap
     ethr =  1.00E-06,  avg # of iterations =  4.0

     negative rho (up, down):  4.845E-04 0.000E+00

     total cpu time spent up to now is     3345.1 secs

     total energy              =    -176.32078610 Ry
     estimated scf accuracy    <       0.00009220 Ry

     iteration #  2     ecut=    60.00 Ry     beta= 0.70
     Davidson diagonalization with overlap
     ethr =  2.88E-07,  avg # of iterations =  2.0

     negative rho (up, down):  4.851E-04 0.000E+00

     total cpu time spent up to now is     3350.4 secs

     total energy              =    -176.32079684 Ry
     estimated scf accuracy    <       0.00000945 Ry

     iteration #  3     ecut=    60.00 Ry     beta= 0.70
     Davidson diagonalization with overlap
     ethr =  2.95E-08,  avg # of iterations =  3.0

     negative rho (up, down):  4.852E-04 0.000E+00

     total cpu time spent up to now is     3356.7 secs

     total energy              =    -176.32079860 Ry
     estimated scf accuracy    <       0.00000414 Ry

     iteration #  4     ecut=    60.00 Ry     beta= 0.70
     Davidson diagonalization with overlap
     ethr =  1.29E-08,  avg # of iterations =  2.3

     negative rho (up, down):  4.852E-04 0.000E+00

     total cpu time spent up to now is     3361.9 secs

     total energy              =    -176.32079934 Ry
     estimated scf accuracy    <       0.00000008 Ry

     iteration #  5     ecut=    60.00 Ry     beta= 0.70
     Davidson diagonalization with overlap
     ethr =  2.47E-10,  avg # of iterations =  5.8

     negative rho (up, down):  4.852E-04 0.000E+00

     total cpu time spent up to now is     3370.1 secs

     total energy              =    -176.32079938 Ry
     estimated scf accuracy    <       0.00000021 Ry

     iteration #  6     ecut=    60.00 Ry     beta= 0.70
     Davidson diagonalization with overlap
     ethr =  2.47E-10,  avg # of iterations =  3.0

     negative rho (up, down):  4.852E-04 0.000E+00

     total cpu time spent up to now is     3376.4 secs

     total energy              =    -176.32079941 Ry
     estimated scf accuracy    <          3.0E-09 Ry

     iteration #  7     ecut=    60.00 Ry     beta= 0.70
     Davidson diagonalization with overlap
     ethr =  9.47E-12,  avg # of iterations =  4.3

     negative rho (up, down):  4.852E-04 0.000E+00

     total cpu time spent up to now is     3384.1 secs

     total energy              =    -176.32079941 Ry
     estimated scf accuracy    <          6.4E-09 Ry

     iteration #  8     ecut=    60.00 Ry     beta= 0.70
     Davidson diagonalization with overlap
     ethr =  9.47E-12,  avg # of iterations =  2.0

     negative rho (up, down):  4.852E-04 0.000E+00

     total cpu time spent up to now is     3389.6 secs

     total energy              =    -176.32079941 Ry
     estimated scf accuracy    <          9.5E-10 Ry

     iteration #  9     ecut=    60.00 Ry     beta= 0.70
     Davidson diagonalization with overlap
     ethr =  2.98E-12,  avg # of iterations =  3.0

     negative rho (up, down):  4.852E-04 0.000E+00

     total cpu time spent up to now is     3395.7 secs

     End of self-consistent calculation

          k = 0.0000 0.0000 0.0000 ( 18047 PWs)   bands (ev):

   -24.6541 -24.2298 -23.4535 -23.0860 -12.0339 -11.8988 -11.8766 -11.8197
   -10.1282  -9.0443  -7.5430  -7.0223  -6.4332  -6.4175  -6.3241  -6.1854

          k =-0.0153 0.2863 0.0000 ( 18132 PWs)   bands (ev):

   -24.5177 -24.0976 -23.6246 -23.2504 -12.1564 -12.1084 -11.6646 -11.5821
    -9.8922  -8.9582  -7.7391  -7.3492  -6.5516  -6.4483  -6.2166  -6.1041

          k = 0.0307-0.5725 0.0000 ( 18166 PWs)   bands (ev):

   -24.2898 -23.8954 -23.8642 -23.5066 -12.2193 -12.2092 -11.5346 -11.4345
    -9.5788  -8.8257  -7.9952  -7.7511  -6.6076  -6.4474  -6.1274  -6.0317

          k = 0.2575-0.1328 0.0000 ( 18109 PWs)   bands (ev):

   -24.5171 -24.0971 -23.6242 -23.2500 -12.1759 -12.1254 -11.6388 -11.5926
    -9.8921  -8.9634  -7.7339  -7.3419  -6.5463  -6.4449  -6.2097  -6.1000

          k = 0.2421 0.1535 0.0000 ( 18132 PWs)   bands (ev):

   -24.5166 -24.1024 -23.6258 -23.2447 -12.0778 -11.9324 -11.9049 -11.6822
    -9.7912  -8.8598  -7.9046  -7.4053  -6.4165  -6.3174  -6.2446  -6.2276

          k = 0.2882-0.7053 0.0000 ( 18147 PWs)   bands (ev):

   -24.2870 -23.9147 -23.8583 -23.4951 -12.1941 -12.1541 -11.6510 -11.4885
    -9.4178  -8.6110  -8.2717  -7.8620  -6.5184  -6.3984  -6.1227  -6.0623

          k = 0.2728-0.4190 0.0000 ( 18128 PWs)   bands (ev):

   -24.2894 -23.8954 -23.8634 -23.5061 -12.2463 -12.2330 -11.5075 -11.4362
    -9.5584  -8.7983  -8.0116  -7.7951  -6.5847  -6.4547  -6.0903  -6.0356

          k =-0.5150 0.2656 0.0000 ( 18184 PWs)   bands (ev):

   -24.2882 -23.8958 -23.8625 -23.5062 -12.2571 -12.2248 -11.5154 -11.4428
    -9.5883  -8.8441  -7.9778  -7.7180  -6.5937  -6.4494  -6.1142  -6.0223

          k =-0.5303 0.5518 0.0000 ( 18128 PWs)   bands (ev):

   -24.2861 -23.9150 -23.8574 -23.4949 -12.2109 -12.1675 -11.6402 -11.4889
    -9.4244  -8.6270  -8.2600  -7.8443  -6.5117  -6.3996  -6.1148  -6.0566

          k =-0.4843-0.3070 0.0000 ( 18166 PWs)   bands (ev):

   -24.2828 -23.9352 -23.8511 -23.4854 -12.1209 -11.9578 -11.9094 -11.5808
    -9.2386  -8.6778  -8.1782  -8.0448  -6.3721  -6.3052  -6.1911  -6.1774

     highest occupied level (ev):    -6.0223

!    total energy              =    -176.32079942 Ry
     estimated scf accuracy    <          3.5E-11 Ry

     convergence has been achieved in   9 iterations

     negative rho (up, down):  4.852E-04 0.000E+00

     Forces acting on atoms (cartesian axes, Ry/au):

     atom    1 type  1   force =     0.00027227   -0.00016220    0.00088300
     atom    2 type  1   force =    -0.00002242    0.00041791    0.00081914
     atom    3 type  1   force =     0.00007582   -0.00165453    0.00117802
     atom    4 type  1   force =    -0.00023721   -0.00057419   -0.00091672
     atom    5 type  1   force =     0.00010797    0.00039854   -0.00065098
     atom    6 type  1   force =     0.00101459   -0.00079156   -0.00049099
     atom    7 type  1   force =    -0.00074489    0.00099864   -0.00054029
     atom    8 type  1   force =     0.00015644   -0.00011317    0.00004376
     atom    9 type  2   force =     0.00053330   -0.00012475   -0.00048390
     atom   10 type  2   force =    -0.00054788    0.00004669    0.00048307
     atom   11 type  2   force =    -0.00038457    0.00196598   -0.00046519
     atom   12 type  2   force =    -0.00022343   -0.00040736    0.00014106

     Total force =     0.004122     Total SCF correction =     0.000005

     Entering Dynamics:    iteration =    48

     <vel(dt)|acc(dt)> =   0.21170838

ATOMIC_POSITIONS (angstrom)
H             4.4653932063        3.7372123419       11.2089319846
H             5.3192202211        4.3001792670       10.0080397376
H             3.2955668167        1.1697625977        8.0835814228
H             3.1494419561        2.8702115330        9.3326597550
H             3.9980650032        3.4312121961        8.1275464624
H             6.3356909723        3.9979642941        8.0959814735
H             3.0106453967        1.8039675577       11.2539567017
H             2.1303663161        3.1697064503       11.2478731872
O             5.2852827437        4.2714721111       11.0082828370
O             3.1798499690        2.8966869059        8.3318905985
O             5.4287015377        4.3829681166        8.2589167646
O             3.0371623118        2.7867633868       11.0820251530



     Writing config-only to output data dir ./output/f-BH.save/
     NEW-OLD atomic charge density approx. for the potential

     negative rho (up, down):  4.844E-04 0.000E+00

     total cpu time spent up to now is     3408.5 secs

     per-process dynamical memory:   210.2 Mb

     Self-consistent Calculation

     iteration #  1     ecut=    60.00 Ry     beta= 0.70
     Davidson diagonalization with overlap
     ethr =  1.00E-06,  avg # of iterations =  3.0

     Threshold (ethr) on eigenvalues was too large:
     Diagonalizing with lowered threshold

     Davidson diagonalization with overlap
     ethr =  3.08E-08,  avg # of iterations =  2.2

     negative rho (up, down):  4.850E-04 0.000E+00

     total cpu time spent up to now is     3419.7 secs

     total energy              =    -176.32080958 Ry
     estimated scf accuracy    <       0.00001102 Ry

     iteration #  2     ecut=    60.00 Ry     beta= 0.70
     Davidson diagonalization with overlap
     ethr =  3.44E-08,  avg # of iterations =  2.1

     negative rho (up, down):  4.850E-04 0.000E+00

     total cpu time spent up to now is     3425.2 secs

     total energy              =    -176.32081122 Ry
     estimated scf accuracy    <       0.00000212 Ry

     iteration #  3     ecut=    60.00 Ry     beta= 0.70
     Davidson diagonalization with overlap
     ethr =  6.62E-09,  avg # of iterations =  2.2

     negative rho (up, down):  4.850E-04 0.000E+00

     total cpu time spent up to now is     3430.9 secs

     total energy              =    -176.32081175 Ry
     estimated scf accuracy    <       0.00000031 Ry

     iteration #  4     ecut=    60.00 Ry     beta= 0.70
     Davidson diagonalization with overlap
     ethr =  9.68E-10,  avg # of iterations =  2.1

     negative rho (up, down):  4.851E-04 0.000E+00

     total cpu time spent up to now is     3436.0 secs

     total energy              =    -176.32081179 Ry
     estimated scf accuracy    <       0.00000001 Ry

     iteration #  5     ecut=    60.00 Ry     beta= 0.70
     Davidson diagonalization with overlap
     ethr =  4.52E-11,  avg # of iterations =  3.2

     negative rho (up, down):  4.850E-04 0.000E+00

     total cpu time spent up to now is     3442.5 secs

     total energy              =    -176.32081179 Ry
     estimated scf accuracy    <          7.3E-09 Ry

     iteration #  6     ecut=    60.00 Ry     beta= 0.70
     Davidson diagonalization with overlap
     ethr =  2.29E-11,  avg # of iterations =  2.0

     negative rho (up, down):  4.850E-04 0.000E+00

     total cpu time spent up to now is     3447.7 secs

     total energy              =    -176.32081179 Ry
     estimated scf accuracy    <          7.5E-10 Ry

     iteration #  7     ecut=    60.00 Ry     beta= 0.70
     Davidson diagonalization with overlap
     ethr =  2.34E-12,  avg # of iterations =  4.0

     negative rho (up, down):  4.850E-04 0.000E+00

     total cpu time spent up to now is     3454.7 secs

     total energy              =    -176.32081179 Ry
     estimated scf accuracy    <          7.3E-10 Ry

     iteration #  8     ecut=    60.00 Ry     beta= 0.70
     Davidson diagonalization with overlap
     ethr =  2.29E-12,  avg # of iterations =  2.0

     negative rho (up, down):  4.850E-04 0.000E+00

     total cpu time spent up to now is     3459.9 secs

     End of self-consistent calculation

          k = 0.0000 0.0000 0.0000 ( 18047 PWs)   bands (ev):

   -24.6540 -24.2316 -23.4536 -23.0878 -12.0349 -11.9019 -11.8796 -11.8204
   -10.1214  -9.0415  -7.5414  -7.0207  -6.4323  -6.4139  -6.3238  -6.1840

          k =-0.0153 0.2863 0.0000 ( 18132 PWs)   bands (ev):

   -24.5174 -24.0992 -23.6249 -23.2524 -12.1565 -12.1087 -11.6681 -11.5846
    -9.8868  -8.9554  -7.7375  -7.3474  -6.5500  -6.4478  -6.2146  -6.1022

          k = 0.0307-0.5725 0.0000 ( 18166 PWs)   bands (ev):

   -24.2886 -23.8996 -23.8621 -23.5096 -12.2190 -12.2085 -11.5379 -11.4373
    -9.5747  -8.8228  -7.9938  -7.7494  -6.6067  -6.4469  -6.1250  -6.0296

          k = 0.2575-0.1328 0.0000 ( 18109 PWs)   bands (ev):

   -24.5170 -24.0990 -23.6242 -23.2518 -12.1783 -12.1275 -11.6387 -11.5959
    -9.8852  -8.9599  -7.7331  -7.3408  -6.5442  -6.4448  -6.2076  -6.0983

          k = 0.2421 0.1535 0.0000 ( 18132 PWs)   bands (ev):

   -24.5169 -24.1048 -23.6251 -23.2460 -12.0786 -11.9356 -11.9057 -11.6862
    -9.7852  -8.8565  -7.9025  -7.4030  -6.4125  -6.3176  -6.2445  -6.2257

          k = 0.2882-0.7053 0.0000 ( 18147 PWs)   bands (ev):

   -24.2873 -23.9188 -23.8560 -23.4964 -12.1939 -12.1547 -11.6536 -11.4930
    -9.4131  -8.6078  -8.2695  -7.8594  -6.5171  -6.3974  -6.1210  -6.0605

          k = 0.2728-0.4190 0.0000 ( 18128 PWs)   bands (ev):

   -24.2887 -23.8993 -23.8614 -23.5085 -12.2480 -12.2329 -11.5091 -11.4392
    -9.5525  -8.7947  -8.0109  -7.7939  -6.5833  -6.4546  -6.0884  -6.0334

          k =-0.5150 0.2656 0.0000 ( 18184 PWs)   bands (ev):

   -24.2880 -23.8995 -23.8606 -23.5080 -12.2602 -12.2262 -11.5149 -11.4461
    -9.5805  -8.8396  -7.9780  -7.7177  -6.5921  -6.4493  -6.1117  -6.0204

          k =-0.5303 0.5518 0.0000 ( 18128 PWs)   bands (ev):

   -24.2869 -23.9190 -23.8551 -23.4957 -12.2128 -12.1694 -11.6411 -11.4929
    -9.4175  -8.6224  -8.2592  -7.8429  -6.5102  -6.3987  -6.1131  -6.0550

          k =-0.4843-0.3070 0.0000 ( 18166 PWs)   bands (ev):

   -24.2846 -23.9392 -23.8485 -23.4852 -12.1217 -11.9588 -11.9123 -11.5861
    -9.2330  -8.6764  -8.1728  -8.0421  -6.3696  -6.3016  -6.1915  -6.1777

     highest occupied level (ev):    -6.0204

!    total energy              =    -176.32081179 Ry
     estimated scf accuracy    <          3.3E-11 Ry

     convergence has been achieved in   8 iterations

     negative rho (up, down):  4.850E-04 0.000E+00

     Forces acting on atoms (cartesian axes, Ry/au):

     atom    1 type  1   force =     0.00044727    0.00001896    0.00050701
     atom    2 type  1   force =    -0.00007078    0.00040791   -0.00038805
     atom    3 type  1   force =     0.00024676    0.00101271    0.00056861
     atom    4 type  1   force =    -0.00021037   -0.00056170   -0.00013832
     atom    5 type  1   force =    -0.00004808    0.00031934   -0.00035569
     atom    6 type  1   force =    -0.00065237    0.00002774   -0.00012205
     atom    7 type  1   force =    -0.00071766    0.00011764   -0.00039339
     atom    8 type  1   force =     0.00008408    0.00001585   -0.00003881
     atom    9 type  2   force =     0.00022556   -0.00043619    0.00091520
     atom   10 type  2   force =    -0.00031041    0.00057052   -0.00042985
     atom   11 type  2   force =     0.00094916   -0.00202855   -0.00022003
     atom   12 type  2   force =     0.00005684    0.00053578    0.00009537

     Total force =     0.003314     Total SCF correction =     0.000007

     Entering Dynamics:    iteration =    49

     <vel(dt)|acc(dt)> =   0.07039670

ATOMIC_POSITIONS (angstrom)
H             4.4659397539        3.7371748756       11.2093455532
H             5.3192699376        4.3003798485       10.0078975123
H             3.2957276012        1.1694867634        8.0840349284
H             3.1492622007        2.8700544919        9.3326121504
H             3.9977269870        3.4313538017        8.1272610669
H             6.3356639851        3.9975863442        8.0956678480
H             3.0101995027        1.8042723892       11.2538335889
H             2.1304758940        3.1700656879       11.2479592671
O             5.2855944960        4.2716787832       11.0083583614
O             3.1795363680        2.8965798545        8.3318674590
O             5.4288868837        4.3825696493        8.2587245265
O             3.0371028408        2.7869042686       11.0821238158



     Writing config-only to output data dir ./output/f-BH.save/
     NEW-OLD atomic charge density approx. for the potential

     negative rho (up, down):  4.850E-04 0.000E+00

     total cpu time spent up to now is     3472.7 secs

     per-process dynamical memory:   210.2 Mb

     Self-consistent Calculation

     iteration #  1     ecut=    60.00 Ry     beta= 0.70
     Davidson diagonalization with overlap
     ethr =  1.00E-06,  avg # of iterations =  2.0

     Threshold (ethr) on eigenvalues was too large:
     Diagonalizing with lowered threshold

     Davidson diagonalization with overlap
     ethr =  8.27E-10,  avg # of iterations =  3.2

     negative rho (up, down):  4.850E-04 0.000E+00

     total cpu time spent up to now is     3484.1 secs

     total energy              =    -176.32081615 Ry
     estimated scf accuracy    <       0.00000042 Ry

     iteration #  2     ecut=    60.00 Ry     beta= 0.70
     Davidson diagonalization with overlap
     ethr =  1.31E-09,  avg # of iterations =  2.0

     negative rho (up, down):  4.850E-04 0.000E+00

     total cpu time spent up to now is     3489.5 secs

     total energy              =    -176.32081621 Ry
     estimated scf accuracy    <       0.00000006 Ry

     iteration #  3     ecut=    60.00 Ry     beta= 0.70
     Davidson diagonalization with overlap
     ethr =  2.01E-10,  avg # of iterations =  2.0

     negative rho (up, down):  4.850E-04 0.000E+00

     total cpu time spent up to now is     3495.2 secs

     total energy              =    -176.32081622 Ry
     estimated scf accuracy    <       0.00000001 Ry

     iteration #  4     ecut=    60.00 Ry     beta= 0.70
     Davidson diagonalization with overlap
     ethr =  3.35E-11,  avg # of iterations =  2.0

     negative rho (up, down):  4.850E-04 0.000E+00

     total cpu time spent up to now is     3500.2 secs

     total energy              =    -176.32081622 Ry
     estimated scf accuracy    <          3.8E-10 Ry

     iteration #  5     ecut=    60.00 Ry     beta= 0.70
     Davidson diagonalization with overlap
     ethr =  1.20E-12,  avg # of iterations =  3.5

     negative rho (up, down):  4.850E-04 0.000E+00

     total cpu time spent up to now is     3506.8 secs

     total energy              =    -176.32081622 Ry
     estimated scf accuracy    <          3.5E-10 Ry

     iteration #  6     ecut=    60.00 Ry     beta= 0.70
     Davidson diagonalization with overlap
     ethr =  1.11E-12,  avg # of iterations =  2.0

     negative rho (up, down):  4.850E-04 0.000E+00

     total cpu time spent up to now is     3512.0 secs

     End of self-consistent calculation

          k = 0.0000 0.0000 0.0000 ( 18047 PWs)   bands (ev):

   -24.6539 -24.2317 -23.4536 -23.0880 -12.0361 -11.9025 -11.8794 -11.8202
   -10.1206  -9.0413  -7.5415  -7.0210  -6.4319  -6.4143  -6.3238  -6.1841

          k =-0.0153 0.2863 0.0000 ( 18132 PWs)   bands (ev):

   -24.5173 -24.0993 -23.6250 -23.2526 -12.1570 -12.1091 -11.6678 -11.5852
    -9.8862  -8.9554  -7.7376  -7.3476  -6.5498  -6.4477  -6.2146  -6.1021

          k = 0.0307-0.5725 0.0000 ( 18166 PWs)   bands (ev):

   -24.2885 -23.8989 -23.8629 -23.5097 -12.2192 -12.2089 -11.5375 -11.4380
    -9.5743  -8.8235  -7.9937  -7.7492  -6.6062  -6.4470  -6.1249  -6.0295

          k = 0.2575-0.1328 0.0000 ( 18109 PWs)   bands (ev):

   -24.5169 -24.0990 -23.6244 -23.2521 -12.1783 -12.1279 -11.6394 -11.5957
    -9.8844  -8.9596  -7.7329  -7.3408  -6.5443  -6.4447  -6.2078  -6.0987

          k = 0.2421 0.1535 0.0000 ( 18132 PWs)   bands (ev):

   -24.5169 -24.1049 -23.6251 -23.2460 -12.0797 -11.9360 -11.9060 -11.6858
    -9.7844  -8.8562  -7.9024  -7.4031  -6.4126  -6.3175  -6.2443  -6.2261

          k = 0.2882-0.7053 0.0000 ( 18147 PWs)   bands (ev):

   -24.2874 -23.9181 -23.8569 -23.4963 -12.1945 -12.1551 -11.6537 -11.4932
    -9.4126  -8.6080  -8.2693  -7.8592  -6.5168  -6.3976  -6.1211  -6.0604

          k = 0.2728-0.4190 0.0000 ( 18128 PWs)   bands (ev):

   -24.2884 -23.8988 -23.8621 -23.5089 -12.2478 -12.2335 -11.5093 -11.4395
    -9.5519  -8.7948  -8.0107  -7.7939  -6.5832  -6.4545  -6.0886  -6.0336

          k =-0.5150 0.2656 0.0000 ( 18184 PWs)   bands (ev):

   -24.2875 -23.8990 -23.8612 -23.5087 -12.2599 -12.2266 -11.5157 -11.4460
    -9.5797  -8.8391  -7.9778  -7.7179  -6.5924  -6.4490  -6.1120  -6.0210

          k =-0.5303 0.5518 0.0000 ( 18128 PWs)   bands (ev):

   -24.2868 -23.9183 -23.8560 -23.4959 -12.2131 -12.1699 -11.6416 -11.4929
    -9.4168  -8.6220  -8.2590  -7.8429  -6.5103  -6.3986  -6.1132  -6.0554

          k =-0.4843-0.3070 0.0000 ( 18166 PWs)   bands (ev):

   -24.2849 -23.9384 -23.8493 -23.4850 -12.1227 -11.9599 -11.9121 -11.5858
    -9.2324  -8.6760  -8.1729  -8.0418  -6.3694  -6.3019  -6.1916  -6.1776

     highest occupied level (ev):    -6.0210

!    total energy              =    -176.32081622 Ry
     estimated scf accuracy    <          2.6E-11 Ry

     convergence has been achieved in   6 iterations

     negative rho (up, down):  4.850E-04 0.000E+00

     Forces acting on atoms (cartesian axes, Ry/au):

     atom    1 type  1   force =     0.00046284    0.00006090    0.00043977
     atom    2 type  1   force =    -0.00008069    0.00033479   -0.00008696
     atom    3 type  1   force =     0.00025887    0.00099435    0.00049654
     atom    4 type  1   force =    -0.00019224   -0.00050607   -0.00009627
     atom    5 type  1   force =    -0.00022636    0.00014732   -0.00025128
     atom    6 type  1   force =    -0.00039208   -0.00007041   -0.00013968
     atom    7 type  1   force =    -0.00067203   -0.00013634   -0.00031806
     atom    8 type  1   force =    -0.00002255    0.00007978   -0.00003499
     atom    9 type  2   force =     0.00016712   -0.00044447    0.00064276
     atom   10 type  2   force =    -0.00006988    0.00065778   -0.00054606
     atom   11 type  2   force =     0.00058996   -0.00184216   -0.00012608
     atom   12 type  2   force =     0.00017703    0.00072453    0.00002031

     Total force =     0.002954     Total SCF correction =     0.000006

     Entering Dynamics:    iteration =    50

     <vel(dt)|acc(dt)> =   0.98370585

ATOMIC_POSITIONS (angstrom)
H             4.4685792616        3.7370823054       11.2112571268
H             5.3194577296        4.3012853462       10.0076535862
H             3.2965510059        1.1685021745        8.0861376920
H             3.1484152740        2.8692712595        9.3324273326
H             3.9958728865        3.4317959036        8.1260396556
H             6.3357951633        3.9957107491        8.0941780345
H             3.0080419731        1.8052553448       11.2532878061
H             2.1308152862        3.1718105520       11.2483450749
O             5.2869759421        4.2724739351       11.0085042411
O             3.1784336720        2.8964119291        8.3314363304
O             5.4293925252        4.3804817963        8.2579480727
O             3.0370557313        2.7880254625       11.0824711250



     Writing config-only to output data dir ./output/f-BH.save/
     NEW-OLD atomic charge density approx. for the potential

     negative rho (up, down):  4.847E-04 0.000E+00

     total cpu time spent up to now is     3524.7 secs

     per-process dynamical memory:   210.2 Mb

     Self-consistent Calculation

     iteration #  1     ecut=    60.00 Ry     beta= 0.70
     Davidson diagonalization with overlap
     ethr =  1.00E-06,  avg # of iterations =  2.7

     Threshold (ethr) on eigenvalues was too large:
     Diagonalizing with lowered threshold

     Davidson diagonalization with overlap
     ethr =  1.61E-08,  avg # of iterations =  3.0

     negative rho (up, down):  4.848E-04 0.000E+00

     total cpu time spent up to now is     3536.4 secs

     total energy              =    -176.32083042 Ry
     estimated scf accuracy    <       0.00000747 Ry

     iteration #  2     ecut=    60.00 Ry     beta= 0.70
     Davidson diagonalization with overlap
     ethr =  2.33E-08,  avg # of iterations =  2.0

     negative rho (up, down):  4.848E-04 0.000E+00

     total cpu time spent up to now is     3541.8 secs

     total energy              =    -176.32083141 Ry
     estimated scf accuracy    <       0.00000058 Ry

     iteration #  3     ecut=    60.00 Ry     beta= 0.70
     Davidson diagonalization with overlap
     ethr =  1.81E-09,  avg # of iterations =  2.0

     negative rho (up, down):  4.848E-04 0.000E+00

     total cpu time spent up to now is     3547.5 secs

     total energy              =    -176.32083152 Ry
     estimated scf accuracy    <       0.00000015 Ry

     iteration #  4     ecut=    60.00 Ry     beta= 0.70
     Davidson diagonalization with overlap
     ethr =  4.72E-10,  avg # of iterations =  2.0

     negative rho (up, down):  4.848E-04 0.000E+00

     total cpu time spent up to now is     3552.9 secs

     total energy              =    -176.32083155 Ry
     estimated scf accuracy    <          6.3E-09 Ry

     iteration #  5     ecut=    60.00 Ry     beta= 0.70
     Davidson diagonalization with overlap
     ethr =  1.96E-11,  avg # of iterations =  2.0

     negative rho (up, down):  4.848E-04 0.000E+00

     total cpu time spent up to now is     3558.4 secs

     total energy              =    -176.32083155 Ry
     estimated scf accuracy    <          1.6E-09 Ry

     iteration #  6     ecut=    60.00 Ry     beta= 0.70
     Davidson diagonalization with overlap
     ethr =  4.90E-12,  avg # of iterations =  2.0

     negative rho (up, down):  4.848E-04 0.000E+00

     total cpu time spent up to now is     3563.9 secs

     End of self-consistent calculation

          k = 0.0000 0.0000 0.0000 ( 18047 PWs)   bands (ev):

   -24.6533 -24.2317 -23.4529 -23.0875 -12.0344 -11.8994 -11.8828 -11.8223
   -10.1172  -9.0418  -7.5411  -7.0219  -6.4319  -6.4149  -6.3254  -6.1833

          k =-0.0153 0.2863 0.0000 ( 18132 PWs)   bands (ev):

   -24.5169 -24.0995 -23.6239 -23.2519 -12.1569 -12.1092 -11.6648 -11.5883
    -9.8833  -8.9572  -7.7378  -7.3490  -6.5486  -6.4476  -6.2153  -6.1013

          k = 0.0307-0.5725 0.0000 ( 18166 PWs)   bands (ev):

   -24.2887 -23.8996 -23.8615 -23.5083 -12.2204 -12.2078 -11.5338 -11.4412
    -9.5719  -8.8277  -7.9938  -7.7497  -6.6037  -6.4471  -6.1249  -6.0288

          k = 0.2575-0.1328 0.0000 ( 18109 PWs)   bands (ev):

   -24.5159 -24.0987 -23.6241 -23.2521 -12.1758 -12.1280 -11.6421 -11.5953
    -9.8811  -8.9595  -7.7322  -7.3416  -6.5446  -6.4446  -6.2090  -6.1005

          k = 0.2421 0.1535 0.0000 ( 18132 PWs)   bands (ev):

   -24.5165 -24.1052 -23.6240 -23.2454 -12.0776 -11.9344 -11.9077 -11.6890
    -9.7813  -8.8564  -7.9021  -7.4037  -6.4113  -6.3188  -6.2454  -6.2259

          k = 0.2882-0.7053 0.0000 ( 18147 PWs)   bands (ev):

   -24.2877 -23.9191 -23.8549 -23.4951 -12.1938 -12.1551 -11.6523 -11.4960
    -9.4098  -8.6099  -8.2697  -7.8596  -6.5148  -6.3979  -6.1218  -6.0602

          k = 0.2728-0.4190 0.0000 ( 18128 PWs)   bands (ev):

   -24.2873 -23.9000 -23.8602 -23.5089 -12.2455 -12.2343 -11.5084 -11.4414
    -9.5488  -8.7961  -8.0104  -7.7953  -6.5823  -6.4537  -6.0896  -6.0347

          k =-0.5150 0.2656 0.0000 ( 18184 PWs)   bands (ev):

   -24.2852 -23.9009 -23.8587 -23.5102 -12.2569 -12.2266 -11.5182 -11.4457
    -9.5760  -8.8377  -7.9771  -7.7202  -6.5933  -6.4473  -6.1136  -6.0241

          k =-0.5303 0.5518 0.0000 ( 18128 PWs)   bands (ev):

   -24.2858 -23.9195 -23.8539 -23.4960 -12.2104 -12.1700 -11.6425 -11.4951
    -9.4132  -8.6209  -8.2590  -7.8444  -6.5104  -6.3971  -6.1144  -6.0581

          k =-0.4843-0.3070 0.0000 ( 18166 PWs)   bands (ev):

   -24.2853 -23.9394 -23.8472 -23.4838 -12.1205 -11.9575 -11.9145 -11.5895
    -9.2292  -8.6757  -8.1736  -8.0417  -6.3676  -6.3014  -6.1933  -6.1792

     highest occupied level (ev):    -6.0241

!    total energy              =    -176.32083155 Ry
     estimated scf accuracy    <          5.7E-11 Ry

     convergence has been achieved in   6 iterations

     negative rho (up, down):  4.848E-04 0.000E+00

     Forces acting on atoms (cartesian axes, Ry/au):

     atom    1 type  1   force =     0.00023149    0.00007175    0.00017796
     atom    2 type  1   force =    -0.00011076   -0.00000147    0.00037610
     atom    3 type  1   force =     0.00023706    0.00007894    0.00030255
     atom    4 type  1   force =    -0.00006766   -0.00019008   -0.00042173
     atom    5 type  1   force =     0.00003141    0.00006897   -0.00006667
     atom    6 type  1   force =     0.00008978   -0.00026312   -0.00008669
     atom    7 type  1   force =    -0.00034349   -0.00003931   -0.00023511
     atom    8 type  1   force =    -0.00019156    0.00033189   -0.00009980
     atom    9 type  2   force =     0.00017418   -0.00020998    0.00028015
     atom   10 type  2   force =    -0.00017794    0.00022029   -0.00021047
     atom   11 type  2   force =    -0.00017929   -0.00033365    0.00002328
     atom   12 type  2   force =     0.00030679    0.00026576   -0.00003956

     Total force =     0.001277     Total SCF correction =     0.000011

     Entering Dynamics:    iteration =    51

     <vel(dt)|acc(dt)> =   0.99160788

ATOMIC_POSITIONS (angstrom)
H             4.4725784326        3.7369753176       11.2141318058
H             5.3196616093        4.3024804123       10.0076785713
H             3.2979259681        1.1664961536        8.0894213955
H             3.1471581928        2.8681409641        9.3316758086
H             3.9933039918        3.4325270843        8.1242180552
H             6.3362451010        3.9926229134        8.0919027409
H             3.0047437842        1.8068828787       11.2523395478
H             2.1311524993        3.1747911098       11.2488295307
O             5.2892057987        4.2737033403       11.0087758707
O             3.1764920311        2.8959854302        8.3309071947
O             5.4297168162        4.3779693949        8.2568386330
O             3.0372022258        2.7895317586       11.0829669237



     Writing config-only to output data dir ./output/f-BH.save/
     NEW-OLD atomic charge density approx. for the potential

     negative rho (up, down):  4.844E-04 0.000E+00

     total cpu time spent up to now is     3576.7 secs

     per-process dynamical memory:   210.2 Mb

     Self-consistent Calculation

     iteration #  1     ecut=    60.00 Ry     beta= 0.70
     Davidson diagonalization with overlap
     ethr =  1.00E-06,  avg # of iterations =  3.0

     Threshold (ethr) on eigenvalues was too large:
     Diagonalizing with lowered threshold

     Davidson diagonalization with overlap
     ethr =  3.87E-08,  avg # of iterations =  2.0

     negative rho (up, down):  4.845E-04 0.000E+00

     total cpu time spent up to now is     3588.1 secs

     total energy              =    -176.32083512 Ry
     estimated scf accuracy    <       0.00001428 Ry

     iteration #  2     ecut=    60.00 Ry     beta= 0.70
     Davidson diagonalization with overlap
     ethr =  4.46E-08,  avg # of iterations =  2.0

     negative rho (up, down):  4.845E-04 0.000E+00

     total cpu time spent up to now is     3593.4 secs

     total energy              =    -176.32083675 Ry
     estimated scf accuracy    <       0.00000134 Ry

     iteration #  3     ecut=    60.00 Ry     beta= 0.70
     Davidson diagonalization with overlap
     ethr =  4.20E-09,  avg # of iterations =  2.2

     negative rho (up, down):  4.845E-04 0.000E+00

     total cpu time spent up to now is     3599.2 secs

     total energy              =    -176.32083702 Ry
     estimated scf accuracy    <       0.00000041 Ry

     iteration #  4     ecut=    60.00 Ry     beta= 0.70
     Davidson diagonalization with overlap
     ethr =  1.27E-09,  avg # of iterations =  2.2

     negative rho (up, down):  4.846E-04 0.000E+00

     total cpu time spent up to now is     3604.5 secs

     total energy              =    -176.32083708 Ry
     estimated scf accuracy    <       0.00000001 Ry

     iteration #  5     ecut=    60.00 Ry     beta= 0.70
     Davidson diagonalization with overlap
     ethr =  3.13E-11,  avg # of iterations =  3.2

     negative rho (up, down):  4.846E-04 0.000E+00

     total cpu time spent up to now is     3611.0 secs

     total energy              =    -176.32083709 Ry
     estimated scf accuracy    <          8.6E-09 Ry

     iteration #  6     ecut=    60.00 Ry     beta= 0.70
     Davidson diagonalization with overlap
     ethr =  2.70E-11,  avg # of iterations =  2.0

     negative rho (up, down):  4.846E-04 0.000E+00

     total cpu time spent up to now is     3616.2 secs

     total energy              =    -176.32083709 Ry
     estimated scf accuracy    <          6.0E-10 Ry

     iteration #  7     ecut=    60.00 Ry     beta= 0.70
     Davidson diagonalization with overlap
     ethr =  1.86E-12,  avg # of iterations =  4.2

     negative rho (up, down):  4.846E-04 0.000E+00

     total cpu time spent up to now is     3623.5 secs

     total energy              =    -176.32083709 Ry
     estimated scf accuracy    <          7.0E-10 Ry

     iteration #  8     ecut=    60.00 Ry     beta= 0.70
     Davidson diagonalization with overlap
     ethr =  1.86E-12,  avg # of iterations =  2.0

     negative rho (up, down):  4.846E-04 0.000E+00

     total cpu time spent up to now is     3628.9 secs

     End of self-consistent calculation

          k = 0.0000 0.0000 0.0000 ( 18047 PWs)   bands (ev):

   -24.6529 -24.2322 -23.4521 -23.0872 -12.0318 -11.8959 -11.8874 -11.8237
   -10.1125  -9.0445  -7.5403  -7.0236  -6.4338  -6.4139  -6.3286  -6.1814

          k =-0.0153 0.2863 0.0000 ( 18132 PWs)   bands (ev):

   -24.5167 -24.1003 -23.6229 -23.2514 -12.1553 -12.1075 -11.6626 -11.5930
    -9.8801  -8.9617  -7.7373  -7.3509  -6.5471  -6.4478  -6.2166  -6.1001

          k = 0.0307-0.5725 0.0000 ( 18166 PWs)   bands (ev):

   -24.2893 -23.9026 -23.8583 -23.5068 -12.2204 -12.2038 -11.5309 -11.4465
    -9.5704  -8.8356  -7.9928  -7.7498  -6.6002  -6.4474  -6.1252  -6.0281

          k = 0.2575-0.1328 0.0000 ( 18109 PWs)   bands (ev):

   -24.5150 -24.0988 -23.6238 -23.2524 -12.1727 -12.1283 -11.6445 -11.5952
    -9.8756  -8.9607  -7.7316  -7.3438  -6.5447  -6.4449  -6.2107  -6.1026

          k = 0.2421 0.1535 0.0000 ( 18132 PWs)   bands (ev):

   -24.5164 -24.1061 -23.6225 -23.2448 -12.0745 -11.9337 -11.9080 -11.6936
    -9.7770  -8.8585  -7.9012  -7.4051  -6.4091  -6.3215  -6.2489  -6.2238

          k = 0.2882-0.7053 0.0000 ( 18147 PWs)   bands (ev):

   -24.2886 -23.9223 -23.8511 -23.4935 -12.1918 -12.1535 -11.6516 -11.5009
    -9.4069  -8.6146  -8.2690  -7.8598  -6.5119  -6.3983  -6.1231  -6.0601

          k = 0.2728-0.4190 0.0000 ( 18128 PWs)   bands (ev):

   -24.2864 -23.9036 -23.8565 -23.5092 -12.2424 -12.2335 -11.5080 -11.4445
    -9.5441  -8.7991  -8.0102  -7.7981  -6.5809  -6.4526  -6.0914  -6.0363

          k =-0.5150 0.2656 0.0000 ( 18184 PWs)   bands (ev):

   -24.2827 -23.9051 -23.8544 -23.5124 -12.2535 -12.2265 -11.5206 -11.4460
    -9.5684  -8.8360  -7.9775  -7.7256  -6.5940  -6.4452  -6.1158  -6.0284

          k =-0.5303 0.5518 0.0000 ( 18128 PWs)   bands (ev):

   -24.2852 -23.9229 -23.8501 -23.4962 -12.2072 -12.1698 -11.6433 -11.4983
    -9.4068  -8.6197  -8.2598  -7.8481  -6.5102  -6.3951  -6.1161  -6.0618

          k =-0.4843-0.3070 0.0000 ( 18166 PWs)   bands (ev):

   -24.2866 -23.9425 -23.8432 -23.4822 -12.1172 -11.9538 -11.9179 -11.5953
    -9.2249  -8.6761  -8.1744  -8.0421  -6.3647  -6.3001  -6.1964  -6.1819

     highest occupied level (ev):    -6.0281

!    total energy              =    -176.32083709 Ry
     estimated scf accuracy    <          1.6E-11 Ry

     convergence has been achieved in   8 iterations

     negative rho (up, down):  4.846E-04 0.000E+00

     Forces acting on atoms (cartesian axes, Ry/au):

     atom    1 type  1   force =    -0.00001706    0.00010598   -0.00017490
     atom    2 type  1   force =    -0.00010206   -0.00041899    0.00061636
     atom    3 type  1   force =     0.00018062    0.00022909   -0.00028377
     atom    4 type  1   force =     0.00005080    0.00021362   -0.00006984
     atom    5 type  1   force =    -0.00026415   -0.00039873    0.00033929
     atom    6 type  1   force =    -0.00041379   -0.00003374    0.00025904
     atom    7 type  1   force =     0.00013864   -0.00028936   -0.00001089
     atom    8 type  1   force =     0.00025342    0.00037101   -0.00032061
     atom    9 type  2   force =     0.00003383   -0.00003996    0.00017579
     atom   10 type  2   force =     0.00037234    0.00022487   -0.00072822
     atom   11 type  2   force =    -0.00003369   -0.00037783    0.00024575
     atom   12 type  2   force =    -0.00019890    0.00041404   -0.00004801

     Total force =     0.001729     Total SCF correction =     0.000005

     Entering Dynamics:    iteration =    52

     <vel(dt)|acc(dt)> =  -0.90832392

ATOMIC_POSITIONS (angstrom)
H             4.4723174026        3.7370045611       11.2139207816
H             5.3196208092        4.3023257513       10.0077999682
H             3.2978824881        1.1666753197        8.0891737223
H             3.1472475686        2.8682398411        9.3316749958
H             3.9934497677        3.4324227082        8.1243922923
H             6.3361318947        3.9928125608        8.0920998093
H             3.0049659739        1.8067354004       11.2523786591
H             2.1311659896        3.1746780368       11.2487297948
O             5.2890776379        4.2735974388       11.0088285526
O             3.1766592764        2.8960631855        8.3308063315
O             5.4296941749        4.3780445434        8.2569550396
O             3.0371734672        2.7895074110       11.0829261308



     Writing config-only to output data dir ./output/f-BH.save/
     NEW-OLD atomic charge density approx. for the potential

     negative rho (up, down):  4.846E-04 0.000E+00

     total cpu time spent up to now is     3641.7 secs

     per-process dynamical memory:   210.2 Mb

     Self-consistent Calculation

     iteration #  1     ecut=    60.00 Ry     beta= 0.70
     Davidson diagonalization with overlap
     ethr =  1.00E-06,  avg # of iterations =  2.0

     Threshold (ethr) on eigenvalues was too large:
     Diagonalizing with lowered threshold

     Davidson diagonalization with overlap
     ethr =  1.89E-10,  avg # of iterations =  3.1

     negative rho (up, down):  4.846E-04 0.000E+00

     total cpu time spent up to now is     3652.9 secs

     total energy              =    -176.32083817 Ry
     estimated scf accuracy    <       0.00000010 Ry

     iteration #  2     ecut=    60.00 Ry     beta= 0.70
     Davidson diagonalization with overlap
     ethr =  2.98E-10,  avg # of iterations =  2.0

     negative rho (up, down):  4.846E-04 0.000E+00

     total cpu time spent up to now is     3658.3 secs

     total energy              =    -176.32083818 Ry
     estimated scf accuracy    <       0.00000001 Ry

     iteration #  3     ecut=    60.00 Ry     beta= 0.70
     Davidson diagonalization with overlap
     ethr =  3.28E-11,  avg # of iterations =  2.3

     negative rho (up, down):  4.846E-04 0.000E+00

     total cpu time spent up to now is     3664.1 secs

     total energy              =    -176.32083819 Ry
     estimated scf accuracy    <          2.9E-09 Ry

     iteration #  4     ecut=    60.00 Ry     beta= 0.70
     Davidson diagonalization with overlap
     ethr =  9.01E-12,  avg # of iterations =  2.3

     negative rho (up, down):  4.846E-04 0.000E+00

     total cpu time spent up to now is     3669.2 secs

     End of self-consistent calculation

          k = 0.0000 0.0000 0.0000 ( 18047 PWs)   bands (ev):

   -24.6532 -24.2325 -23.4524 -23.0875 -12.0318 -11.8959 -11.8874 -11.8240
   -10.1132  -9.0447  -7.5405  -7.0238  -6.4340  -6.4140  -6.3287  -6.1816

          k =-0.0153 0.2863 0.0000 ( 18132 PWs)   bands (ev):

   -24.5170 -24.1007 -23.6231 -23.2516 -12.1557 -12.1080 -11.6624 -11.5927
    -9.8806  -8.9618  -7.7377  -7.3512  -6.5473  -6.4480  -6.2168  -6.1003

          k = 0.0307-0.5725 0.0000 ( 18166 PWs)   bands (ev):

   -24.2897 -23.9031 -23.8584 -23.5071 -12.2208 -12.2045 -11.5307 -11.4461
    -9.5705  -8.8352  -7.9934  -7.7503  -6.6005  -6.4475  -6.1254  -6.0284

          k = 0.2575-0.1328 0.0000 ( 18109 PWs)   bands (ev):

   -24.5154 -24.0992 -23.6240 -23.2526 -12.1729 -12.1284 -11.6444 -11.5952
    -9.8763  -8.9610  -7.7320  -7.3441  -6.5449  -6.4451  -6.2109  -6.1027

          k = 0.2421 0.1535 0.0000 ( 18132 PWs)   bands (ev):

   -24.5167 -24.1064 -23.6228 -23.2451 -12.0746 -11.9336 -11.9081 -11.6936
    -9.7776  -8.8588  -7.9015  -7.4053  -6.4093  -6.3217  -6.2490  -6.2241

          k = 0.2882-0.7053 0.0000 ( 18147 PWs)   bands (ev):

   -24.2888 -23.9229 -23.8512 -23.4939 -12.1921 -12.1539 -11.6514 -11.5006
    -9.4072  -8.6147  -8.2695  -7.8603  -6.5122  -6.3984  -6.1233  -6.0603

          k = 0.2728-0.4190 0.0000 ( 18128 PWs)   bands (ev):

   -24.2868 -23.9040 -23.8566 -23.5095 -12.2427 -12.2339 -11.5078 -11.4442
    -9.5446  -8.7992  -8.0107  -7.7984  -6.5811  -6.4528  -6.0915  -6.0364

          k =-0.5150 0.2656 0.0000 ( 18184 PWs)   bands (ev):

   -24.2831 -23.9056 -23.8546 -23.5125 -12.2537 -12.2266 -11.5205 -11.4459
    -9.5693  -8.8364  -7.9780  -7.7257  -6.5941  -6.4455  -6.1159  -6.0283

          k =-0.5303 0.5518 0.0000 ( 18128 PWs)   bands (ev):

   -24.2855 -23.9235 -23.8502 -23.4965 -12.2073 -12.1699 -11.6432 -11.4982
    -9.4076  -8.6203  -8.2601  -7.8482  -6.5103  -6.3954  -6.1162  -6.0619

          k =-0.4843-0.3070 0.0000 ( 18166 PWs)   bands (ev):

   -24.2867 -23.9430 -23.8433 -23.4827 -12.1173 -11.9539 -11.9178 -11.5952
    -9.2254  -8.6767  -8.1745  -8.0425  -6.3650  -6.3002  -6.1965  -6.1821

     highest occupied level (ev):    -6.0283

!    total energy              =    -176.32083819 Ry
     estimated scf accuracy    <          6.3E-11 Ry

     convergence has been achieved in   4 iterations

     negative rho (up, down):  4.846E-04 0.000E+00

     Forces acting on atoms (cartesian axes, Ry/au):

     atom    1 type  1   force =    -0.00004214    0.00007521   -0.00010931
     atom    2 type  1   force =    -0.00007804   -0.00037067    0.00051439
     atom    3 type  1   force =     0.00016847    0.00000882   -0.00020239
     atom    4 type  1   force =     0.00003198    0.00018070   -0.00021579
     atom    5 type  1   force =    -0.00007069   -0.00025174    0.00023434
     atom    6 type  1   force =    -0.00025443   -0.00010504    0.00020183
     atom    7 type  1   force =     0.00009961   -0.00011459   -0.00004954
     atom    8 type  1   force =     0.00014666    0.00038198   -0.00027927
     atom    9 type  2   force =     0.00005802   -0.00001675    0.00022415
     atom   10 type  2   force =     0.00016753    0.00007781   -0.00048327
     atom   11 type  2   force =    -0.00015074   -0.00007395    0.00022311
     atom   12 type  2   force =    -0.00007624    0.00020822   -0.00005825

     Total force =     0.001241     Total SCF correction =     0.000012

     Entering Dynamics:    iteration =    53

     <vel(dt)|acc(dt)> =   0.93747688

ATOMIC_POSITIONS (angstrom)
H             4.4718061424        3.7370801758       11.2135308012
H             5.3195150694        4.3018780563       10.0082227272
H             3.2978968308        1.1669085311        8.0886741879
H             3.1474109365        2.8684817189        9.3314500076
H             3.9938132833        3.4322006781        8.1247628133
H             6.3358488301        3.9930643045        8.0925395997
H             3.0053826159        1.8065243948       11.2523814331
H             2.1312107783        3.1746878462       11.2484121020
O             5.2888970843        4.2733901002       11.0091292515
O             3.1769116486        2.8961731206        8.3304948939
O             5.4295376514        4.3782603049        8.2572721405
O             3.0371555797        2.7894575266       11.0828161200



     Writing config-only to output data dir ./output/f-BH.save/
     NEW-OLD atomic charge density approx. for the potential

     negative rho (up, down):  4.847E-04 0.000E+00

     total cpu time spent up to now is     3682.0 secs

     per-process dynamical memory:   210.2 Mb

     Self-consistent Calculation

     iteration #  1     ecut=    60.00 Ry     beta= 0.70
     Davidson diagonalization with overlap
     ethr =  1.00E-06,  avg # of iterations =  2.0

     Threshold (ethr) on eigenvalues was too large:
     Diagonalizing with lowered threshold

     Davidson diagonalization with overlap
     ethr =  7.70E-10,  avg # of iterations =  3.4

     negative rho (up, down):  4.846E-04 0.000E+00

     total cpu time spent up to now is     3693.5 secs

     total energy              =    -176.32084014 Ry
     estimated scf accuracy    <       0.00000040 Ry

     iteration #  2     ecut=    60.00 Ry     beta= 0.70
     Davidson diagonalization with overlap
     ethr =  1.26E-09,  avg # of iterations =  2.0

     negative rho (up, down):  4.846E-04 0.000E+00

     total cpu time spent up to now is     3698.8 secs

     total energy              =    -176.32084019 Ry
     estimated scf accuracy    <       0.00000002 Ry

     iteration #  3     ecut=    60.00 Ry     beta= 0.70
     Davidson diagonalization with overlap
     ethr =  7.76E-11,  avg # of iterations =  2.0

     negative rho (up, down):  4.846E-04 0.000E+00

     total cpu time spent up to now is     3704.4 secs

     total energy              =    -176.32084019 Ry
     estimated scf accuracy    <          5.8E-09 Ry

     iteration #  4     ecut=    60.00 Ry     beta= 0.70
     Davidson diagonalization with overlap
     ethr =  1.80E-11,  avg # of iterations =  2.1

     negative rho (up, down):  4.846E-04 0.000E+00

     total cpu time spent up to now is     3709.8 secs

     total energy              =    -176.32084020 Ry
     estimated scf accuracy    <          4.1E-10 Ry

     iteration #  5     ecut=    60.00 Ry     beta= 0.70
     Davidson diagonalization with overlap
     ethr =  1.28E-12,  avg # of iterations =  2.0

     negative rho (up, down):  4.846E-04 0.000E+00

     total cpu time spent up to now is     3715.1 secs

     End of self-consistent calculation

          k = 0.0000 0.0000 0.0000 ( 18047 PWs)   bands (ev):

   -24.6542 -24.2336 -23.4532 -23.0884 -12.0320 -11.8961 -11.8869 -11.8242
   -10.1149  -9.0459  -7.5412  -7.0247  -6.4348  -6.4144  -6.3294  -6.1821

          k =-0.0153 0.2863 0.0000 ( 18132 PWs)   bands (ev):

   -24.5180 -24.1018 -23.6239 -23.2525 -12.1562 -12.1087 -11.6624 -11.5919
    -9.8821  -8.9626  -7.7386  -7.3521  -6.5481  -6.4486  -6.2173  -6.1010

          k = 0.0307-0.5725 0.0000 ( 18166 PWs)   bands (ev):

   -24.2908 -23.9046 -23.8587 -23.5079 -12.2212 -12.2057 -11.5306 -11.4449
    -9.5717  -8.8352  -7.9949  -7.7516  -6.6014  -6.4479  -6.1261  -6.0292

          k = 0.2575-0.1328 0.0000 ( 18109 PWs)   bands (ev):

   -24.5164 -24.1003 -23.6247 -23.2535 -12.1737 -12.1286 -11.6437 -11.5949
    -9.8780  -8.9622  -7.7331  -7.3452  -6.5452  -6.4458  -6.2114  -6.1029

          k = 0.2421 0.1535 0.0000 ( 18132 PWs)   bands (ev):

   -24.5176 -24.1075 -23.6237 -23.2462 -12.0750 -11.9334 -11.9082 -11.6931
    -9.7794  -8.8603  -7.9022  -7.4063  -6.4097  -6.3224  -6.2496  -6.2246

          k = 0.2882-0.7053 0.0000 ( 18147 PWs)   bands (ev):

   -24.2897 -23.9245 -23.8514 -23.4950 -12.1927 -12.1544 -11.6510 -11.4997
    -9.4087  -8.6156  -8.2706  -7.8615  -6.5130  -6.3987  -6.1239  -6.0611

          k = 0.2728-0.4190 0.0000 ( 18128 PWs)   bands (ev):

   -24.2879 -23.9055 -23.8570 -23.5102 -12.2435 -12.2346 -11.5073 -11.4434
    -9.5460  -8.7998  -8.0124  -7.7997  -6.5816  -6.4535  -6.0920  -6.0368

          k =-0.5150 0.2656 0.0000 ( 18184 PWs)   bands (ev):

   -24.2843 -23.9070 -23.8551 -23.5132 -12.2546 -12.2271 -11.5195 -11.4453
    -9.5709  -8.8377  -7.9797  -7.7268  -6.5942  -6.4464  -6.1164  -6.0283

          k =-0.5303 0.5518 0.0000 ( 18128 PWs)   bands (ev):

   -24.2864 -23.9251 -23.8504 -23.4975 -12.2081 -12.1701 -11.6426 -11.4975
    -9.4093  -8.6219  -8.2613  -7.8493  -6.5106  -6.3961  -6.1169  -6.0620

          k =-0.4843-0.3070 0.0000 ( 18166 PWs)   bands (ev):

   -24.2873 -23.9447 -23.8436 -23.4840 -12.1178 -11.9545 -11.9169 -11.5944
    -9.2271  -8.6790  -8.1747  -8.0437  -6.3656  -6.3005  -6.1971  -6.1828

     highest occupied level (ev):    -6.0283

!    total energy              =    -176.32084020 Ry
     estimated scf accuracy    <          5.5E-11 Ry

     convergence has been achieved in   5 iterations

     negative rho (up, down):  4.846E-04 0.000E+00

     Forces acting on atoms (cartesian axes, Ry/au):

     atom    1 type  1   force =    -0.00008754    0.00000016    0.00007433
     atom    2 type  1   force =    -0.00000013   -0.00023179    0.00032379
     atom    3 type  1   force =     0.00011763   -0.00020187   -0.00007305
     atom    4 type  1   force =    -0.00003571    0.00008163   -0.00033531
     atom    5 type  1   force =     0.00017865   -0.00002090    0.00001846
     atom    6 type  1   force =    -0.00009509   -0.00018449    0.00011918
     atom    7 type  1   force =     0.00000156    0.00013263   -0.00008953
     atom    8 type  1   force =     0.00004252    0.00031384   -0.00019635
     atom    9 type  2   force =     0.00006543   -0.00000690    0.00023610
     atom   10 type  2   force =    -0.00007217   -0.00008155   -0.00015506
     atom   11 type  2   force =    -0.00020115    0.00018656    0.00017630
     atom   12 type  2   force =     0.00008601    0.00001269   -0.00009885

     Total force =     0.000909     Total SCF correction =     0.000014

     Entering Dynamics:    iteration =    54

     <vel(dt)|acc(dt)> =   0.62387749

ATOMIC_POSITIONS (angstrom)
H             4.4716844209        3.7371524676       11.2135367251
H             5.3194238382        4.3013330600       10.0089753390
H             3.2981945078        1.1668314121        8.0884617533
H             3.1473947848        2.8686710089        9.3308621950
H             3.9939927518        3.4320021033        8.1249680228
H             6.3354176263        3.9928174764        8.0928603646
H             3.0054186093        1.8065834874       11.2521882071
H             2.1313935307        3.1753401909       11.2479363096
O             5.2890354748        4.2732976015       11.0097210108
O             3.1769302387        2.8962205945        8.3298650232
O             5.4293207614        4.3781801206        8.2576352106
O             3.0371799061        2.7896772348       11.0826759169



     Writing config-only to output data dir ./output/f-BH.save/
     NEW-OLD atomic charge density approx. for the potential

     negative rho (up, down):  4.848E-04 0.000E+00

     total cpu time spent up to now is     3727.9 secs

     per-process dynamical memory:   210.2 Mb

     Self-consistent Calculation

     iteration #  1     ecut=    60.00 Ry     beta= 0.70
     Davidson diagonalization with overlap
     ethr =  1.00E-06,  avg # of iterations =  2.0

     Threshold (ethr) on eigenvalues was too large:
     Diagonalizing with lowered threshold

     Davidson diagonalization with overlap
     ethr =  1.23E-09,  avg # of iterations =  3.1

     negative rho (up, down):  4.847E-04 0.000E+00

     total cpu time spent up to now is     3739.5 secs

     total energy              =    -176.32084224 Ry
     estimated scf accuracy    <       0.00000057 Ry

     iteration #  2     ecut=    60.00 Ry     beta= 0.70
     Davidson diagonalization with overlap
     ethr =  1.79E-09,  avg # of iterations =  2.0

     negative rho (up, down):  4.847E-04 0.000E+00

     total cpu time spent up to now is     3744.8 secs

     total energy              =    -176.32084231 Ry
     estimated scf accuracy    <       0.00000004 Ry

     iteration #  3     ecut=    60.00 Ry     beta= 0.70
     Davidson diagonalization with overlap
     ethr =  1.17E-10,  avg # of iterations =  2.0

     negative rho (up, down):  4.847E-04 0.000E+00

     total cpu time spent up to now is     3750.3 secs

     total energy              =    -176.32084231 Ry
     estimated scf accuracy    <          4.6E-09 Ry

     iteration #  4     ecut=    60.00 Ry     beta= 0.70
     Davidson diagonalization with overlap
     ethr =  1.42E-11,  avg # of iterations =  2.1

     negative rho (up, down):  4.847E-04 0.000E+00

     total cpu time spent up to now is     3755.9 secs

     total energy              =    -176.32084232 Ry
     estimated scf accuracy    <          5.7E-10 Ry

     iteration #  5     ecut=    60.00 Ry     beta= 0.70
     Davidson diagonalization with overlap
     ethr =  1.79E-12,  avg # of iterations =  2.0

     negative rho (up, down):  4.847E-04 0.000E+00

     total cpu time spent up to now is     3761.3 secs

     End of self-consistent calculation

          k = 0.0000 0.0000 0.0000 ( 18047 PWs)   bands (ev):

   -24.6555 -24.2353 -23.4543 -23.0897 -12.0324 -11.8962 -11.8865 -11.8244
   -10.1167  -9.0482  -7.5419  -7.0261  -6.4363  -6.4148  -6.3308  -6.1827

          k =-0.0153 0.2863 0.0000 ( 18132 PWs)   bands (ev):

   -24.5194 -24.1036 -23.6248 -23.2538 -12.1567 -12.1094 -11.6620 -11.5912
    -9.8839  -8.9646  -7.7397  -7.3537  -6.5490  -6.4494  -6.2184  -6.1021

          k = 0.0307-0.5725 0.0000 ( 18166 PWs)   bands (ev):

   -24.2925 -23.9071 -23.8589 -23.5089 -12.2216 -12.2068 -11.5301 -11.4440
    -9.5736  -8.8366  -7.9966  -7.7532  -6.6023  -6.4486  -6.1273  -6.0304

          k = 0.2575-0.1328 0.0000 ( 18109 PWs)   bands (ev):

   -24.5177 -24.1020 -23.6258 -23.2549 -12.1744 -12.1291 -11.6428 -11.5943
    -9.8796  -8.9644  -7.7347  -7.3472  -6.5456  -6.4470  -6.2125  -6.1036

          k = 0.2421 0.1535 0.0000 ( 18132 PWs)   bands (ev):

   -24.5189 -24.1092 -23.6247 -23.2476 -12.0755 -11.9331 -11.9081 -11.6928
    -9.7813  -8.8629  -7.9032  -7.4078  -6.4102  -6.3238  -6.2508  -6.2252

          k = 0.2882-0.7053 0.0000 ( 18147 PWs)   bands (ev):

   -24.2911 -23.9271 -23.8515 -23.4963 -12.1933 -12.1549 -11.6502 -11.4990
    -9.4106  -8.6180  -8.2718  -7.8633  -6.5138  -6.3992  -6.1250  -6.0623

          k = 0.2728-0.4190 0.0000 ( 18128 PWs)   bands (ev):

   -24.2894 -23.9080 -23.8573 -23.5114 -12.2443 -12.2355 -11.5064 -11.4424
    -9.5475  -8.8013  -8.0148  -7.8017  -6.5821  -6.4544  -6.0932  -6.0376

          k =-0.5150 0.2656 0.0000 ( 18184 PWs)   bands (ev):

   -24.2856 -23.9095 -23.8554 -23.5146 -12.2554 -12.2279 -11.5182 -11.4444
    -9.5720  -8.8394  -7.9826  -7.7293  -6.5944  -6.4475  -6.1174  -6.0291

          k =-0.5303 0.5518 0.0000 ( 18128 PWs)   bands (ev):

   -24.2876 -23.9277 -23.8506 -23.4991 -12.2089 -12.1703 -11.6416 -11.4966
    -9.4107  -8.6243  -8.2633  -7.8514  -6.5109  -6.3971  -6.1181  -6.0629

          k =-0.4843-0.3070 0.0000 ( 18166 PWs)   bands (ev):

   -24.2884 -23.9473 -23.8437 -23.4857 -12.1184 -11.9550 -11.9157 -11.5938
    -9.2289  -8.6823  -8.1754  -8.0454  -6.3663  -6.3007  -6.1984  -6.1841

     highest occupied level (ev):    -6.0291

!    total energy              =    -176.32084232 Ry
     estimated scf accuracy    <          2.3E-11 Ry

     convergence has been achieved in   5 iterations

     negative rho (up, down):  4.847E-04 0.000E+00

     Forces acting on atoms (cartesian axes, Ry/au):

     atom    1 type  1   force =    -0.00011250   -0.00005699    0.00026715
     atom    2 type  1   force =     0.00011374   -0.00007927    0.00005899
     atom    3 type  1   force =     0.00002797   -0.00036766    0.00000628
     atom    4 type  1   force =    -0.00011524   -0.00000989   -0.00039122
     atom    5 type  1   force =     0.00037503    0.00017398   -0.00020814
     atom    6 type  1   force =     0.00005392   -0.00025339    0.00004996
     atom    7 type  1   force =    -0.00006469    0.00038935   -0.00009603
     atom    8 type  1   force =    -0.00004617    0.00020885   -0.00009775
     atom    9 type  2   force =    -0.00002929   -0.00002284    0.00027814
     atom   10 type  2   force =    -0.00021132   -0.00022672    0.00014997
     atom   11 type  2   force =    -0.00023741    0.00042164    0.00015915
     atom   12 type  2   force =     0.00024595   -0.00017706   -0.00017651

     Total force =     0.001223     Total SCF correction =     0.000011

     Entering Dynamics:    iteration =    55

     <vel(dt)|acc(dt)> =   0.90243670

ATOMIC_POSITIONS (angstrom)
H             4.4719337965        3.7372148290       11.2140286879
H             5.3194123568        4.3006913982       10.0100122851
H             3.2987463390        1.1664006292        8.0884987619
H             3.1471536227        2.8688034836        9.3298753551
H             3.9940398608        3.4318457714        8.1249360166
H             6.3348402682        3.9920172335        8.0930853007
H             3.0050766596        1.8070154429       11.2518047745
H             2.1317189428        3.1766455425       11.2472938166
O             5.2894003570        4.2732904178       11.0106831002
O             3.1767508476        2.8961666298        8.3289348195
O             5.4290032776        4.3778717210        8.2581084589
O             3.0373101221        2.7901436593       11.0824247006



     Writing config-only to output data dir ./output/f-BH.save/
     NEW-OLD atomic charge density approx. for the potential

     negative rho (up, down):  4.848E-04 0.000E+00

     total cpu time spent up to now is     3774.1 secs

     per-process dynamical memory:   210.2 Mb

     Self-consistent Calculation

     iteration #  1     ecut=    60.00 Ry     beta= 0.70
     Davidson diagonalization with overlap
     ethr =  1.00E-06,  avg # of iterations =  2.0

     Threshold (ethr) on eigenvalues was too large:
     Diagonalizing with lowered threshold

     Davidson diagonalization with overlap
     ethr =  3.14E-09,  avg # of iterations =  3.1

     negative rho (up, down):  4.847E-04 0.000E+00

     total cpu time spent up to now is     3785.7 secs

     total energy              =    -176.32084454 Ry
     estimated scf accuracy    <       0.00000137 Ry

     iteration #  2     ecut=    60.00 Ry     beta= 0.70
     Davidson diagonalization with overlap
     ethr =  4.27E-09,  avg # of iterations =  2.0

     negative rho (up, down):  4.847E-04 0.000E+00

     total cpu time spent up to now is     3790.9 secs

     total energy              =    -176.32084470 Ry
     estimated scf accuracy    <       0.00000011 Ry

     iteration #  3     ecut=    60.00 Ry     beta= 0.70
     Davidson diagonalization with overlap
     ethr =  3.51E-10,  avg # of iterations =  2.0

     negative rho (up, down):  4.847E-04 0.000E+00

     total cpu time spent up to now is     3796.4 secs

     total energy              =    -176.32084471 Ry
     estimated scf accuracy    <       0.00000002 Ry

     iteration #  4     ecut=    60.00 Ry     beta= 0.70
     Davidson diagonalization with overlap
     ethr =  7.31E-11,  avg # of iterations =  2.0

     negative rho (up, down):  4.847E-04 0.000E+00

     total cpu time spent up to now is     3801.9 secs

     total energy              =    -176.32084472 Ry
     estimated scf accuracy    <          1.4E-09 Ry

     iteration #  5     ecut=    60.00 Ry     beta= 0.70
     Davidson diagonalization with overlap
     ethr =  4.46E-12,  avg # of iterations =  2.0

     negative rho (up, down):  4.847E-04 0.000E+00

     total cpu time spent up to now is     3807.0 secs

     total energy              =    -176.32084472 Ry
     estimated scf accuracy    <          1.3E-10 Ry

     iteration #  6     ecut=    60.00 Ry     beta= 0.70
     Davidson diagonalization with overlap
     ethr =  4.03E-13,  avg # of iterations =  2.3

     negative rho (up, down):  4.847E-04 0.000E+00

     total cpu time spent up to now is     3812.7 secs

     End of self-consistent calculation

          k = 0.0000 0.0000 0.0000 ( 18047 PWs)   bands (ev):

   -24.6570 -24.2373 -23.4553 -23.0912 -12.0328 -11.8963 -11.8862 -11.8243
   -10.1184  -9.0511  -7.5427  -7.0278  -6.4380  -6.4153  -6.3325  -6.1834

          k =-0.0153 0.2863 0.0000 ( 18132 PWs)   bands (ev):

   -24.5210 -24.1057 -23.6257 -23.2552 -12.1570 -12.1099 -11.6615 -11.5906
    -9.8859  -8.9674  -7.7407  -7.3554  -6.5499  -6.4502  -6.2197  -6.1033

          k = 0.0307-0.5725 0.0000 ( 18166 PWs)   bands (ev):

   -24.2944 -23.9100 -23.8592 -23.5099 -12.2219 -12.2077 -11.5294 -11.4430
    -9.5762  -8.8391  -7.9983  -7.7546  -6.6031  -6.4491  -6.1286  -6.0318

          k = 0.2575-0.1328 0.0000 ( 18109 PWs)   bands (ev):

   -24.5191 -24.1040 -23.6269 -23.2565 -12.1754 -12.1299 -11.6415 -11.5934
    -9.8808  -8.9671  -7.7366  -7.3496  -6.5460  -6.4483  -6.2139  -6.1047

          k = 0.2421 0.1535 0.0000 ( 18132 PWs)   bands (ev):

   -24.5204 -24.1112 -23.6258 -23.2492 -12.0760 -11.9329 -11.9076 -11.6925
    -9.7831  -8.8661  -7.9041  -7.4097  -6.4106  -6.3255  -6.2524  -6.2259

          k = 0.2882-0.7053 0.0000 ( 18147 PWs)   bands (ev):

   -24.2928 -23.9300 -23.8517 -23.4978 -12.1939 -12.1551 -11.6492 -11.4984
    -9.4129  -8.6213  -8.2728  -7.8650  -6.5147  -6.3997  -6.1264  -6.0638

          k = 0.2728-0.4190 0.0000 ( 18128 PWs)   bands (ev):

   -24.2910 -23.9108 -23.8576 -23.5128 -12.2451 -12.2363 -11.5050 -11.4412
    -9.5489  -8.8035  -8.0176  -7.8041  -6.5826  -6.4552  -6.0947  -6.0389

          k =-0.5150 0.2656 0.0000 ( 18184 PWs)   bands (ev):

   -24.2868 -23.9124 -23.8557 -23.5165 -12.2564 -12.2291 -11.5162 -11.4430
    -9.5723  -8.8414  -7.9862  -7.7326  -6.5945  -6.4487  -6.1188  -6.0303

          k =-0.5303 0.5518 0.0000 ( 18128 PWs)   bands (ev):

   -24.2888 -23.9307 -23.8507 -23.5009 -12.2101 -12.1707 -11.6401 -11.4955
    -9.4117  -8.6270  -8.2657  -7.8542  -6.5113  -6.3981  -6.1196  -6.0641

          k =-0.4843-0.3070 0.0000 ( 18166 PWs)   bands (ev):

   -24.2897 -23.9502 -23.8439 -23.4875 -12.1190 -11.9556 -11.9140 -11.5934
    -9.2307  -8.6862  -8.1765  -8.0472  -6.3670  -6.3011  -6.2002  -6.1855

     highest occupied level (ev):    -6.0303

!    total energy              =    -176.32084472 Ry
     estimated scf accuracy    <          9.5E-12 Ry

     convergence has been achieved in   6 iterations

     negative rho (up, down):  4.847E-04 0.000E+00

     Forces acting on atoms (cartesian axes, Ry/au):

     atom    1 type  1   force =    -0.00019413   -0.00015088    0.00045816
     atom    2 type  1   force =     0.00022053    0.00007207   -0.00008877
     atom    3 type  1   force =    -0.00009028   -0.00035513    0.00002075
     atom    4 type  1   force =    -0.00018200   -0.00009158   -0.00030456
     atom    5 type  1   force =     0.00043967    0.00028709   -0.00039685
     atom    6 type  1   force =     0.00008234   -0.00025470    0.00001609
     atom    7 type  1   force =    -0.00009505    0.00050518   -0.00004577
     atom    8 type  1   force =    -0.00002116    0.00003270   -0.00000277
     atom    9 type  2   force =    -0.00008041    0.00000403    0.00015314
     atom   10 type  2   force =    -0.00020748   -0.00029338    0.00030464
     atom   11 type  2   force =    -0.00013851    0.00041243    0.00016992
     atom   12 type  2   force =     0.00026647   -0.00016783   -0.00028398

     Total force =     0.001423     Total SCF correction =     0.000005

     Entering Dynamics:    iteration =    56

     <vel(dt)|acc(dt)> =   0.96548531

ATOMIC_POSITIONS (angstrom)
H             4.4726172840        3.7371806758       11.2153262456
H             5.3195784199        4.3000025975       10.0114251391
H             3.2995685438        1.1655071609        8.0888710313
H             3.1465605176        2.8688158341        9.3284233158
H             3.9939041671        3.4317943354        8.1244632910
H             6.3340557748        3.9904499454        8.0931628491
H             3.0042030588        1.8079958321       11.2512112286
H             2.1322980070        3.1787390283       11.2464774900
O             5.2900842389        4.2734565613       11.0119900779
O             3.1763354031        2.8959340871        8.3276439587
O             5.4286272070        4.3772027272        8.2587584598
O             3.0375538289        2.7910279730       11.0819329910



     Writing config-only to output data dir ./output/f-BH.save/
     NEW-OLD atomic charge density approx. for the potential

     negative rho (up, down):  4.848E-04 0.000E+00

     total cpu time spent up to now is     3825.4 secs

     per-process dynamical memory:   210.2 Mb

     Self-consistent Calculation

     iteration #  1     ecut=    60.00 Ry     beta= 0.70
     Davidson diagonalization with overlap
     ethr =  1.00E-06,  avg # of iterations =  2.0

     Threshold (ethr) on eigenvalues was too large:
     Diagonalizing with lowered threshold

     Davidson diagonalization with overlap
     ethr =  7.35E-09,  avg # of iterations =  3.0

     negative rho (up, down):  4.847E-04 0.000E+00

     total cpu time spent up to now is     3837.4 secs

     total energy              =    -176.32084709 Ry
     estimated scf accuracy    <       0.00000314 Ry

     iteration #  2     ecut=    60.00 Ry     beta= 0.70
     Davidson diagonalization with overlap
     ethr =  9.83E-09,  avg # of iterations =  2.0

     negative rho (up, down):  4.847E-04 0.000E+00

     total cpu time spent up to now is     3842.6 secs

     total energy              =    -176.32084742 Ry
     estimated scf accuracy    <       0.00000027 Ry

     iteration #  3     ecut=    60.00 Ry     beta= 0.70
     Davidson diagonalization with overlap
     ethr =  8.43E-10,  avg # of iterations =  2.0

     negative rho (up, down):  4.847E-04 0.000E+00

     total cpu time spent up to now is     3848.4 secs

     total energy              =    -176.32084746 Ry
     estimated scf accuracy    <       0.00000008 Ry

     iteration #  4     ecut=    60.00 Ry     beta= 0.70
     Davidson diagonalization with overlap
     ethr =  2.43E-10,  avg # of iterations =  2.0

     negative rho (up, down):  4.847E-04 0.000E+00

     total cpu time spent up to now is     3853.9 secs

     total energy              =    -176.32084748 Ry
     estimated scf accuracy    <          2.3E-09 Ry

     iteration #  5     ecut=    60.00 Ry     beta= 0.70
     Davidson diagonalization with overlap
     ethr =  7.21E-12,  avg # of iterations =  3.0

     negative rho (up, down):  4.847E-04 0.000E+00

     total cpu time spent up to now is     3860.1 secs

     total energy              =    -176.32084748 Ry
     estimated scf accuracy    <          1.0E-09 Ry

     iteration #  6     ecut=    60.00 Ry     beta= 0.70
     Davidson diagonalization with overlap
     ethr =  3.23E-12,  avg # of iterations =  2.0

     negative rho (up, down):  4.847E-04 0.000E+00

     total cpu time spent up to now is     3865.5 secs

     End of self-consistent calculation

          k = 0.0000 0.0000 0.0000 ( 18047 PWs)   bands (ev):

   -24.6581 -24.2392 -23.4560 -23.0923 -12.0331 -11.8961 -11.8859 -11.8239
   -10.1191  -9.0541  -7.5430  -7.0290  -6.4394  -6.4157  -6.3340  -6.1842

          k =-0.0153 0.2863 0.0000 ( 18132 PWs)   bands (ev):

   -24.5222 -24.1077 -23.6263 -23.2562 -12.1570 -12.1102 -11.6606 -11.5900
    -9.8876  -8.9706  -7.7412  -7.3566  -6.5506  -6.4504  -6.2209  -6.1046

          k = 0.0307-0.5725 0.0000 ( 18166 PWs)   bands (ev):

   -24.2962 -23.9120 -23.8596 -23.5104 -12.2217 -12.2081 -11.5283 -11.4422
    -9.5791  -8.8425  -7.9991  -7.7550  -6.6035  -6.4492  -6.1298  -6.0332

          k = 0.2575-0.1328 0.0000 ( 18109 PWs)   bands (ev):

   -24.5201 -24.1057 -23.6278 -23.2578 -12.1760 -12.1307 -11.6397 -11.5920
    -9.8812  -8.9697  -7.7381  -7.3515  -6.5459  -6.4496  -6.2154  -6.1061

          k = 0.2421 0.1535 0.0000 ( 18132 PWs)   bands (ev):

   -24.5215 -24.1130 -23.6264 -23.2505 -12.0765 -11.9324 -11.9067 -11.6921
    -9.7841  -8.8693  -7.9046  -7.4111  -6.4109  -6.3268  -6.2538  -6.2266

          k = 0.2882-0.7053 0.0000 ( 18147 PWs)   bands (ev):

   -24.2942 -23.9321 -23.8520 -23.4988 -12.1943 -12.1549 -11.6478 -11.4979
    -9.4151  -8.6252  -8.2730  -7.8660  -6.5152  -6.3999  -6.1275  -6.0650

          k = 0.2728-0.4190 0.0000 ( 18128 PWs)   bands (ev):

   -24.2921 -23.9130 -23.8581 -23.5140 -12.2456 -12.2369 -11.5031 -11.4398
    -9.5499  -8.8062  -8.0198  -7.8058  -6.5828  -6.4556  -6.0961  -6.0403

          k =-0.5150 0.2656 0.0000 ( 18184 PWs)   bands (ev):

   -24.2872 -23.9148 -23.8560 -23.5184 -12.2571 -12.2303 -11.5135 -11.4410
    -9.5716  -8.8433  -7.9897  -7.7357  -6.5943  -6.4497  -6.1204  -6.0320

          k =-0.5303 0.5518 0.0000 ( 18128 PWs)   bands (ev):

   -24.2896 -23.9328 -23.8511 -23.5026 -12.2110 -12.1708 -11.6381 -11.4942
    -9.4117  -8.6295  -8.2679  -7.8567  -6.5114  -6.3989  -6.1210  -6.0655

          k =-0.4843-0.3070 0.0000 ( 18166 PWs)   bands (ev):

   -24.2909 -23.9522 -23.8441 -23.4890 -12.1196 -11.9560 -11.9116 -11.5929
    -9.2317  -8.6896  -8.1780  -8.0482  -6.3675  -6.3016  -6.2016  -6.1865

     highest occupied level (ev):    -6.0320

!    total energy              =    -176.32084748 Ry
     estimated scf accuracy    <          4.5E-11 Ry

     convergence has been achieved in   6 iterations

     negative rho (up, down):  4.847E-04 0.000E+00

     Forces acting on atoms (cartesian axes, Ry/au):

     atom    1 type  1   force =    -0.00011051   -0.00011780    0.00050681
     atom    2 type  1   force =     0.00028021    0.00019203   -0.00027304
     atom    3 type  1   force =    -0.00022091   -0.00019389   -0.00003894
     atom    4 type  1   force =    -0.00019638   -0.00013409   -0.00008552
     atom    5 type  1   force =     0.00027147    0.00023341   -0.00046900
     atom    6 type  1   force =     0.00005438   -0.00019473    0.00000788
     atom    7 type  1   force =    -0.00004525    0.00049519    0.00004514
     atom    8 type  1   force =    -0.00000047   -0.00012756    0.00009856
     atom    9 type  2   force =    -0.00030047   -0.00005240    0.00016402
     atom   10 type  2   force =     0.00002098   -0.00023430    0.00023839
     atom   11 type  2   force =     0.00000216    0.00021662    0.00020265
     atom   12 type  2   force =     0.00024477   -0.00008248   -0.00039695

     Total force =     0.001354     Total SCF correction =     0.000009

     Entering Dynamics:    iteration =    57

     <vel(dt)|acc(dt)> =   0.98407958

ATOMIC_POSITIONS (angstrom)
H             4.4736699067        3.7370605850       11.2175616816
H             5.3200688318        4.2993745062       10.0129791329
H             3.3004413649        1.1641985538        8.0894136626
H             3.1455686634        2.8686732734        9.3266316742
H             3.9936332411        3.4318576531        8.1233777892
H             6.3330996953        3.9881432324        8.0931545798
H             3.0029278014        1.8096728008       11.2505213770
H             2.1331005855        3.1814046589       11.2455845043
O             5.2906978425        4.2736825536       11.0137427759
O             3.1759368513        2.8954764858        8.3260468688
O             5.4282120125        4.3762717670        8.2597391724
O             3.0380296544        2.7922906880       11.0809328593



     Writing config-only to output data dir ./output/f-BH.save/
     NEW-OLD atomic charge density approx. for the potential

     negative rho (up, down):  4.848E-04 0.000E+00

     total cpu time spent up to now is     3878.2 secs

     per-process dynamical memory:   210.2 Mb

     Self-consistent Calculation

     iteration #  1     ecut=    60.00 Ry     beta= 0.70
     Davidson diagonalization with overlap
     ethr =  1.00E-06,  avg # of iterations =  2.0

     Threshold (ethr) on eigenvalues was too large:
     Diagonalizing with lowered threshold

     Davidson diagonalization with overlap
     ethr =  1.33E-08,  avg # of iterations =  3.0

     negative rho (up, down):  4.848E-04 0.000E+00

     total cpu time spent up to now is     3890.2 secs

     total energy              =    -176.32084957 Ry
     estimated scf accuracy    <       0.00000586 Ry

     iteration #  2     ecut=    60.00 Ry     beta= 0.70
     Davidson diagonalization with overlap
     ethr =  1.83E-08,  avg # of iterations =  2.0

     negative rho (up, down):  4.848E-04 0.000E+00

     total cpu time spent up to now is     3895.3 secs

     total energy              =    -176.32085016 Ry
     estimated scf accuracy    <       0.00000038 Ry

     iteration #  3     ecut=    60.00 Ry     beta= 0.70
     Davidson diagonalization with overlap
     ethr =  1.19E-09,  avg # of iterations =  2.0

     negative rho (up, down):  4.848E-04 0.000E+00

     total cpu time spent up to now is     3901.0 secs

     total energy              =    -176.32085021 Ry
     estimated scf accuracy    <       0.00000008 Ry

     iteration #  4     ecut=    60.00 Ry     beta= 0.70
     Davidson diagonalization with overlap
     ethr =  2.63E-10,  avg # of iterations =  2.0

     negative rho (up, down):  4.848E-04 0.000E+00

     total cpu time spent up to now is     3906.7 secs

     total energy              =    -176.32085023 Ry
     estimated scf accuracy    <          6.6E-09 Ry

     iteration #  5     ecut=    60.00 Ry     beta= 0.70
     Davidson diagonalization with overlap
     ethr =  2.07E-11,  avg # of iterations =  2.0

     negative rho (up, down):  4.848E-04 0.000E+00

     total cpu time spent up to now is     3912.1 secs

     total energy              =    -176.32085023 Ry
     estimated scf accuracy    <          1.0E-09 Ry

     iteration #  6     ecut=    60.00 Ry     beta= 0.70
     Davidson diagonalization with overlap
     ethr =  3.12E-12,  avg # of iterations =  2.1

     negative rho (up, down):  4.848E-04 0.000E+00

     total cpu time spent up to now is     3917.8 secs

     End of self-consistent calculation

          k = 0.0000 0.0000 0.0000 ( 18047 PWs)   bands (ev):

   -24.6579 -24.2398 -23.4556 -23.0923 -12.0328 -11.8954 -11.8860 -11.8233
   -10.1181  -9.0547  -7.5425  -7.0283  -6.4394  -6.4159  -6.3340  -6.1849

          k =-0.0153 0.2863 0.0000 ( 18132 PWs)   bands (ev):

   -24.5221 -24.1084 -23.6257 -23.2560 -12.1565 -12.1102 -11.6592 -11.5893
    -9.8880  -8.9720  -7.7406  -7.3558  -6.5507  -6.4491  -6.2212  -6.1057

          k = 0.0307-0.5725 0.0000 ( 18166 PWs)   bands (ev):

   -24.2966 -23.9115 -23.8602 -23.5096 -12.2212 -12.2080 -11.5264 -11.4409
    -9.5816  -8.8450  -7.9982  -7.7529  -6.6033  -6.4481  -6.1300  -6.0341

          k = 0.2575-0.1328 0.0000 ( 18109 PWs)   bands (ev):

   -24.5197 -24.1061 -23.6276 -23.2580 -12.1767 -12.1316 -11.6370 -11.5902
    -9.8800  -8.9705  -7.7385  -7.3514  -6.5448  -6.4498  -6.2162  -6.1074

          k = 0.2421 0.1535 0.0000 ( 18132 PWs)   bands (ev):

   -24.5212 -24.1135 -23.6261 -23.2506 -12.0763 -11.9318 -11.9051 -11.6922
    -9.7835  -8.8700  -7.9043  -7.4109  -6.4111  -6.3267  -6.2537  -6.2273

          k = 0.2882-0.7053 0.0000 ( 18147 PWs)   bands (ev):

   -24.2943 -23.9315 -23.8525 -23.4987 -12.1941 -12.1543 -11.6456 -11.4974
    -9.4163  -8.6276  -8.2719  -7.8649  -6.5153  -6.3995  -6.1274  -6.0654

          k = 0.2728-0.4190 0.0000 ( 18128 PWs)   bands (ev):

   -24.2918 -23.9125 -23.8587 -23.5141 -12.2461 -12.2373 -11.5001 -11.4378
    -9.5501  -8.8079  -8.0204  -7.8049  -6.5825  -6.4550  -6.0967  -6.0412

          k =-0.5150 0.2656 0.0000 ( 18184 PWs)   bands (ev):

   -24.2861 -23.9147 -23.8564 -23.5194 -12.2580 -12.2316 -11.5096 -11.4383
    -9.5695  -8.8440  -7.9918  -7.7362  -6.5934  -6.4499  -6.1212  -6.0334

          k =-0.5303 0.5518 0.0000 ( 18128 PWs)   bands (ev):

   -24.2889 -23.9323 -23.8516 -23.5033 -12.2119 -12.1708 -11.6351 -11.4926
    -9.4101  -8.6304  -8.2690  -7.8571  -6.5110  -6.3992  -6.1215  -6.0662

          k =-0.4843-0.3070 0.0000 ( 18166 PWs)   bands (ev):

   -24.2906 -23.9514 -23.8447 -23.4895 -12.1195 -11.9557 -11.9089 -11.5929
    -9.2309  -8.6905  -8.1795  -8.0472  -6.3679  -6.3022  -6.2017  -6.1859

     highest occupied level (ev):    -6.0334

!    total energy              =    -176.32085023 Ry
     estimated scf accuracy    <          3.0E-11 Ry

     convergence has been achieved in   6 iterations

     negative rho (up, down):  4.848E-04 0.000E+00

     Forces acting on atoms (cartesian axes, Ry/au):

     atom    1 type  1   force =    -0.00021756   -0.00018484    0.00040141
     atom    2 type  1   force =     0.00016872    0.00021470    0.00001594
     atom    3 type  1   force =    -0.00030505    0.00013789   -0.00014985
     atom    4 type  1   force =    -0.00007608   -0.00010901    0.00016719
     atom    5 type  1   force =    -0.00003194    0.00006079   -0.00035988
     atom    6 type  1   force =    -0.00009681   -0.00001033    0.00003351
     atom    7 type  1   force =     0.00009695    0.00017233    0.00017742
     atom    8 type  1   force =     0.00018828   -0.00029562    0.00015031
     atom    9 type  2   force =    -0.00012597    0.00011485   -0.00021435
     atom   10 type  2   force =     0.00025245   -0.00012626   -0.00001397
     atom   11 type  2   force =     0.00025583   -0.00024998    0.00025218
     atom   12 type  2   force =    -0.00010882    0.00027548   -0.00045991

     Total force =     0.001226     Total SCF correction =     0.000014

     Entering Dynamics:    iteration =    58

     <vel(dt)|acc(dt)> =   0.89792295

ATOMIC_POSITIONS (angstrom)
H             4.4738803141        3.7364623083       11.2206463156
H             5.3210466319        4.2992952358       10.0143546263
H             3.3003960561        1.1630681063        8.0894298850
H             3.1444387140        2.8683120957        9.3252598902
H             3.9936521468        3.4321760383        8.1214048064
H             6.3321939114        3.9859535375        8.0932914581
H             3.0021015357        1.8118266960       11.2503512999
H             2.1341657109        3.1830492757       11.2451387720
O             5.2907580842        4.2741203551       11.0148429728
O             3.1761464495        2.8945645061        8.3248433685
O             5.4281742409        4.3754325784        8.2613595844
O             3.0384326552        2.7938460247       11.0787630987



     Writing config-only to output data dir ./output/f-BH.save/
     NEW-OLD atomic charge density approx. for the potential

     negative rho (up, down):  4.846E-04 0.000E+00

     total cpu time spent up to now is     3930.6 secs

     per-process dynamical memory:   210.2 Mb

     Self-consistent Calculation

     iteration #  1     ecut=    60.00 Ry     beta= 0.70
     Davidson diagonalization with overlap
     ethr =  1.00E-06,  avg # of iterations =  3.0

     Threshold (ethr) on eigenvalues was too large:
     Diagonalizing with lowered threshold

     Davidson diagonalization with overlap
     ethr =  1.95E-08,  avg # of iterations =  3.0

     negative rho (up, down):  4.849E-04 0.000E+00

     total cpu time spent up to now is     3942.1 secs

     total energy              =    -176.32085053 Ry
     estimated scf accuracy    <       0.00000782 Ry

     iteration #  2     ecut=    60.00 Ry     beta= 0.70
     Davidson diagonalization with overlap
     ethr =  2.44E-08,  avg # of iterations =  2.0

     negative rho (up, down):  4.850E-04 0.000E+00

     total cpu time spent up to now is     3947.4 secs

     total energy              =    -176.32085143 Ry
     estimated scf accuracy    <       0.00000049 Ry

     iteration #  3     ecut=    60.00 Ry     beta= 0.70
     Davidson diagonalization with overlap
     ethr =  1.52E-09,  avg # of iterations =  2.1

     negative rho (up, down):  4.850E-04 0.000E+00

     total cpu time spent up to now is     3953.0 secs

     total energy              =    -176.32085151 Ry
     estimated scf accuracy    <       0.00000008 Ry

     iteration #  4     ecut=    60.00 Ry     beta= 0.70
     Davidson diagonalization with overlap
     ethr =  2.57E-10,  avg # of iterations =  2.2

     negative rho (up, down):  4.850E-04 0.000E+00

     total cpu time spent up to now is     3958.7 secs

     total energy              =    -176.32085152 Ry
     estimated scf accuracy    <       0.00000001 Ry

     iteration #  5     ecut=    60.00 Ry     beta= 0.70
     Davidson diagonalization with overlap
     ethr =  3.39E-11,  avg # of iterations =  2.0

     negative rho (up, down):  4.850E-04 0.000E+00

     total cpu time spent up to now is     3964.1 secs

     total energy              =    -176.32085152 Ry
     estimated scf accuracy    <          2.8E-10 Ry

     iteration #  6     ecut=    60.00 Ry     beta= 0.70
     Davidson diagonalization with overlap
     ethr =  8.81E-13,  avg # of iterations =  3.5

     negative rho (up, down):  4.850E-04 0.000E+00

     total cpu time spent up to now is     3970.6 secs

     total energy              =    -176.32085152 Ry
     estimated scf accuracy    <          1.0E-10 Ry

     iteration #  7     ecut=    60.00 Ry     beta= 0.70
     Davidson diagonalization with overlap
     ethr =  3.15E-13,  avg # of iterations =  2.1

     negative rho (up, down):  4.850E-04 0.000E+00

     total cpu time spent up to now is     3976.1 secs

     End of self-consistent calculation

          k = 0.0000 0.0000 0.0000 ( 18047 PWs)   bands (ev):

   -24.6529 -24.2346 -23.4511 -23.0872 -12.0309 -11.8928 -11.8841 -11.8210
   -10.1128  -9.0480  -7.5390  -7.0205  -6.4330  -6.4147  -6.3274  -6.1847

          k =-0.0153 0.2863 0.0000 ( 18132 PWs)   bands (ev):

   -24.5172 -24.1031 -23.6213 -23.2510 -12.1540 -12.1080 -11.6564 -11.5873
    -9.8840  -8.9661  -7.7363  -7.3480  -6.5477  -6.4437  -6.2166  -6.1040

          k = 0.0307-0.5725 0.0000 ( 18166 PWs)   bands (ev):

   -24.2917 -23.9008 -23.8613 -23.5045 -12.2186 -12.2056 -11.5235 -11.4387
    -9.5793  -8.8406  -7.9924  -7.7439  -6.6008  -6.4439  -6.1253  -6.0309

          k = 0.2575-0.1328 0.0000 ( 18109 PWs)   bands (ev):

   -24.5145 -24.1006 -23.6236 -23.2532 -12.1741 -12.1293 -11.6343 -11.5877
    -9.8759  -8.9651  -7.7334  -7.3424  -6.5409  -6.4463  -6.2126  -6.1060

          k = 0.2421 0.1535 0.0000 ( 18132 PWs)   bands (ev):

   -24.5162 -24.1078 -23.6220 -23.2457 -12.0746 -11.9290 -11.9025 -11.6902
    -9.7783  -8.8626  -7.9008  -7.4039  -6.4101  -6.3202  -6.2471  -6.2272

          k = 0.2882-0.7053 0.0000 ( 18147 PWs)   bands (ev):

   -24.2893 -23.9206 -23.8535 -23.4939 -12.1920 -12.1517 -11.6424 -11.4955
    -9.4127  -8.6217  -8.2667  -7.8572  -6.5133  -6.3967  -6.1222  -6.0612

          k = 0.2728-0.4190 0.0000 ( 18128 PWs)   bands (ev):

   -24.2863 -23.9021 -23.8596 -23.5095 -12.2433 -12.2348 -11.4970 -11.4352
    -9.5478  -8.8045  -8.0140  -7.7945  -6.5801  -6.4515  -6.0925  -6.0384

          k =-0.5150 0.2656 0.0000 ( 18184 PWs)   bands (ev):

   -24.2801 -23.9050 -23.8566 -23.5154 -12.2550 -12.2293 -11.5065 -11.4353
    -9.5671  -8.8409  -7.9851  -7.7248  -6.5905  -6.4475  -6.1178  -6.0310

          k =-0.5303 0.5518 0.0000 ( 18128 PWs)   bands (ev):

   -24.2834 -23.9215 -23.8527 -23.4991 -12.2096 -12.1681 -11.6319 -11.4904
    -9.4065  -8.6255  -8.2632  -7.8479  -6.5088  -6.3972  -6.1169  -6.0624

          k =-0.4843-0.3070 0.0000 ( 18166 PWs)   bands (ev):

   -24.2856 -23.9403 -23.8458 -23.4850 -12.1178 -11.9537 -11.9051 -11.5910
    -9.2256  -8.6820  -8.1786  -8.0390  -6.3671  -6.3023  -6.1954  -6.1790

     highest occupied level (ev):    -6.0309

!    total energy              =    -176.32085152 Ry
     estimated scf accuracy    <          5.1E-12 Ry

     convergence has been achieved in   7 iterations

     negative rho (up, down):  4.850E-04 0.000E+00

     Forces acting on atoms (cartesian axes, Ry/au):

     atom    1 type  1   force =     0.00078022    0.00058056   -0.00051110
     atom    2 type  1   force =    -0.00027513    0.00003977   -0.00025458
     atom    3 type  1   force =    -0.00015823    0.00018115   -0.00012446
     atom    4 type  1   force =     0.00030289    0.00004154    0.00029007
     atom    5 type  1   force =    -0.00075095   -0.00050704    0.00024703
     atom    6 type  1   force =     0.00003032    0.00016693   -0.00000354
     atom    7 type  1   force =     0.00037702   -0.00019514    0.00010920
     atom    8 type  1   force =    -0.00027728    0.00012831    0.00017127
     atom    9 type  2   force =    -0.00073283   -0.00032044    0.00090094
     atom   10 type  2   force =     0.00062535    0.00025533   -0.00073707
     atom   11 type  2   force =     0.00006545   -0.00039687    0.00014451
     atom   12 type  2   force =     0.00001318    0.00002591   -0.00023229

     Total force =     0.002348     Total SCF correction =     0.000002

     Entering Dynamics:    iteration =    59

     <vel(dt)|acc(dt)> =  -0.89252293

ATOMIC_POSITIONS (angstrom)
H             4.4737310079        3.7365763477       11.2201393086
H             5.3209158810        4.2993450684       10.0140795670
H             3.3002358139        1.1633104322        8.0892660826
H             3.1446663832        2.8683716537        9.3255394238
H             3.9937023224        3.4320947116        8.1216679949
H             6.3323474548        3.9863979436        8.0933509412
H             3.0024173852        1.8115159301       11.2504670080
H             2.1339667179        3.1826185297       11.2452668162
O             5.2905189653        4.2739910485       11.0147419607
O             3.1762908850        2.8946773757        8.3250214623
O             5.4282022712        4.3756372221        8.2612425167
O             3.0383913629        2.7935704948       11.0789029958



     Writing config-only to output data dir ./output/f-BH.save/
     NEW-OLD atomic charge density approx. for the potential

     negative rho (up, down):  4.850E-04 0.000E+00

     total cpu time spent up to now is     3988.9 secs

     per-process dynamical memory:   210.2 Mb

     Self-consistent Calculation

     iteration #  1     ecut=    60.00 Ry     beta= 0.70
     Davidson diagonalization with overlap
     ethr =  1.00E-06,  avg # of iterations =  2.0

     Threshold (ethr) on eigenvalues was too large:
     Diagonalizing with lowered threshold

     Davidson diagonalization with overlap
     ethr =  4.81E-10,  avg # of iterations =  3.0

     negative rho (up, down):  4.850E-04 0.000E+00

     total cpu time spent up to now is     4000.6 secs

     total energy              =    -176.32085287 Ry
     estimated scf accuracy    <       0.00000022 Ry

     iteration #  2     ecut=    60.00 Ry     beta= 0.70
     Davidson diagonalization with overlap
     ethr =  6.72E-10,  avg # of iterations =  2.0

     negative rho (up, down):  4.850E-04 0.000E+00

     total cpu time spent up to now is     4006.0 secs

     total energy              =    -176.32085290 Ry
     estimated scf accuracy    <       0.00000002 Ry

     iteration #  3     ecut=    60.00 Ry     beta= 0.70
     Davidson diagonalization with overlap
     ethr =  5.61E-11,  avg # of iterations =  2.0

     negative rho (up, down):  4.850E-04 0.000E+00

     total cpu time spent up to now is     4011.8 secs

     total energy              =    -176.32085290 Ry
     estimated scf accuracy    <          5.3E-09 Ry

     iteration #  4     ecut=    60.00 Ry     beta= 0.70
     Davidson diagonalization with overlap
     ethr =  1.64E-11,  avg # of iterations =  2.0

     negative rho (up, down):  4.850E-04 0.000E+00

     total cpu time spent up to now is     4017.3 secs

     total energy              =    -176.32085290 Ry
     estimated scf accuracy    <          2.0E-10 Ry

     iteration #  5     ecut=    60.00 Ry     beta= 0.70
     Davidson diagonalization with overlap
     ethr =  6.16E-13,  avg # of iterations =  2.0

     negative rho (up, down):  4.850E-04 0.000E+00

     total cpu time spent up to now is     4022.9 secs

     End of self-consistent calculation

          k = 0.0000 0.0000 0.0000 ( 18047 PWs)   bands (ev):

   -24.6533 -24.2349 -23.4514 -23.0876 -12.0309 -11.8929 -11.8844 -11.8214
   -10.1134  -9.0479  -7.5395  -7.0209  -6.4333  -6.4149  -6.3278  -6.1847

          k =-0.0153 0.2863 0.0000 ( 18132 PWs)   bands (ev):

   -24.5175 -24.1034 -23.6217 -23.2514 -12.1544 -12.1084 -11.6566 -11.5872
    -9.8843  -8.9659  -7.7369  -7.3486  -6.5479  -6.4442  -6.2168  -6.1041

          k = 0.0307-0.5725 0.0000 ( 18166 PWs)   bands (ev):

   -24.2919 -23.9017 -23.8611 -23.5050 -12.2191 -12.2061 -11.5236 -11.4385
    -9.5792  -8.8402  -7.9932  -7.7448  -6.6012  -6.4443  -6.1256  -6.0310

          k = 0.2575-0.1328 0.0000 ( 18109 PWs)   bands (ev):

   -24.5149 -24.1009 -23.6239 -23.2535 -12.1745 -12.1296 -11.6343 -11.5879
    -9.8764  -8.9650  -7.7340  -7.3430  -6.5413  -6.4464  -6.2127  -6.1059

          k = 0.2421 0.1535 0.0000 ( 18132 PWs)   bands (ev):

   -24.5165 -24.1081 -23.6224 -23.2461 -12.0745 -11.9293 -11.9028 -11.6905
    -9.7789  -8.8627  -7.9013  -7.4043  -6.4102  -6.3206  -6.2474  -6.2272

          k = 0.2882-0.7053 0.0000 ( 18147 PWs)   bands (ev):

   -24.2895 -23.9215 -23.8534 -23.4944 -12.1922 -12.1521 -11.6426 -11.4955
    -9.4129  -8.6215  -8.2675  -7.8579  -6.5136  -6.3969  -6.1225  -6.0615

          k = 0.2728-0.4190 0.0000 ( 18128 PWs)   bands (ev):

   -24.2868 -23.9029 -23.8595 -23.5098 -12.2439 -12.2353 -11.4971 -11.4352
    -9.5481  -8.8042  -8.0147  -7.7953  -6.5804  -6.4518  -6.0927  -6.0384

          k =-0.5150 0.2656 0.0000 ( 18184 PWs)   bands (ev):

   -24.2808 -23.9056 -23.8566 -23.5154 -12.2556 -12.2296 -11.5066 -11.4355
    -9.5676  -8.8409  -7.9856  -7.7254  -6.5908  -6.4477  -6.1178  -6.0309

          k =-0.5303 0.5518 0.0000 ( 18128 PWs)   bands (ev):

   -24.2839 -23.9223 -23.8525 -23.4993 -12.2099 -12.1685 -11.6320 -11.4905
    -9.4071  -8.6256  -8.2638  -7.8484  -6.5091  -6.3974  -6.1171  -6.0625

          k =-0.4843-0.3070 0.0000 ( 18166 PWs)   bands (ev):

   -24.2858 -23.9412 -23.8456 -23.4855 -12.1177 -11.9537 -11.9056 -11.5912
    -9.2260  -8.6827  -8.1784  -8.0397  -6.3672  -6.3022  -6.1957  -6.1794

     highest occupied level (ev):    -6.0309

!    total energy              =    -176.32085290 Ry
     estimated scf accuracy    <          5.5E-11 Ry

     convergence has been achieved in   5 iterations

     negative rho (up, down):  4.850E-04 0.000E+00

     Forces acting on atoms (cartesian axes, Ry/au):

     atom    1 type  1   force =     0.00045110    0.00035052   -0.00034624
     atom    2 type  1   force =    -0.00024440    0.00005251   -0.00001768
     atom    3 type  1   force =    -0.00014942    0.00013412   -0.00009427
     atom    4 type  1   force =     0.00026629    0.00001839    0.00016962
     atom    5 type  1   force =    -0.00053316   -0.00035739    0.00014811
     atom    6 type  1   force =     0.00002063    0.00014666   -0.00000607
     atom    7 type  1   force =     0.00032092   -0.00016995    0.00010274
     atom    8 type  1   force =    -0.00015042    0.00005538    0.00014319
     atom    9 type  2   force =    -0.00037598   -0.00011132    0.00050814
     atom   10 type  2   force =     0.00040601    0.00012744   -0.00052617
     atom   11 type  2   force =     0.00008875   -0.00034189    0.00014909
     atom   12 type  2   force =    -0.00010030    0.00009555   -0.00023047

     Total force =     0.001547     Total SCF correction =     0.000014

     Entering Dynamics:    iteration =    60

     <vel(dt)|acc(dt)> =   0.95732796

ATOMIC_POSITIONS (angstrom)
H             4.4733133211        3.7367701839       11.2192634129
H             5.3206182413        4.2994018821       10.0138540157
H             3.2998365702        1.1637294556        8.0888337444
H             3.1451671395        2.8684879777        9.3258920947
H             3.9938414026        3.4318910148        8.1220753128
H             6.3325602844        3.9872101280        8.0935564016
H             3.0031812216        1.8110176034       11.2507184618
H             2.1336516405        3.1818587484       11.2454845540
O             5.2900815621        4.2738218809       11.0146893737
O             3.1766289515        2.8947805709        8.3251784971
O             5.4282665963        4.3759668648        8.2612785127
O             3.0382395195        2.7931704477       11.0788616963



     Writing config-only to output data dir ./output/f-BH.save/
     NEW-OLD atomic charge density approx. for the potential

     negative rho (up, down):  4.850E-04 0.000E+00

     total cpu time spent up to now is     4035.6 secs

     per-process dynamical memory:   210.2 Mb

     Self-consistent Calculation

     iteration #  1     ecut=    60.00 Ry     beta= 0.70
     Davidson diagonalization with overlap
     ethr =  1.00E-06,  avg # of iterations =  2.0

     Threshold (ethr) on eigenvalues was too large:
     Diagonalizing with lowered threshold

     Davidson diagonalization with overlap
     ethr =  1.27E-09,  avg # of iterations =  3.0

     negative rho (up, down):  4.850E-04 0.000E+00

     total cpu time spent up to now is     4047.1 secs

     total energy              =    -176.32085435 Ry
     estimated scf accuracy    <       0.00000056 Ry

     iteration #  2     ecut=    60.00 Ry     beta= 0.70
     Davidson diagonalization with overlap
     ethr =  1.75E-09,  avg # of iterations =  2.0

     negative rho (up, down):  4.850E-04 0.000E+00

     total cpu time spent up to now is     4052.5 secs

     total energy              =    -176.32085442 Ry
     estimated scf accuracy    <       0.00000005 Ry

     iteration #  3     ecut=    60.00 Ry     beta= 0.70
     Davidson diagonalization with overlap
     ethr =  1.71E-10,  avg # of iterations =  2.0

     negative rho (up, down):  4.850E-04 0.000E+00

     total cpu time spent up to now is     4058.3 secs

     total energy              =    -176.32085444 Ry
     estimated scf accuracy    <       0.00000002 Ry

     iteration #  4     ecut=    60.00 Ry     beta= 0.70
     Davidson diagonalization with overlap
     ethr =  5.44E-11,  avg # of iterations =  2.0

     negative rho (up, down):  4.850E-04 0.000E+00

     total cpu time spent up to now is     4063.6 secs

     total energy              =    -176.32085444 Ry
     estimated scf accuracy    <          3.6E-10 Ry

     iteration #  5     ecut=    60.00 Ry     beta= 0.70
     Davidson diagonalization with overlap
     ethr =  1.12E-12,  avg # of iterations =  4.0

     negative rho (up, down):  4.850E-04 0.000E+00

     total cpu time spent up to now is     4070.7 secs

     total energy              =    -176.32085444 Ry
     estimated scf accuracy    <          4.7E-10 Ry

     iteration #  6     ecut=    60.00 Ry     beta= 0.70
     Davidson diagonalization with overlap
     ethr =  1.12E-12,  avg # of iterations =  2.0

     negative rho (up, down):  4.850E-04 0.000E+00

     total cpu time spent up to now is     4075.9 secs

     End of self-consistent calculation

          k = 0.0000 0.0000 0.0000 ( 18047 PWs)   bands (ev):

   -24.6536 -24.2352 -23.4518 -23.0879 -12.0306 -11.8929 -11.8839 -11.8215
   -10.1145  -9.0475  -7.5404  -7.0213  -6.4336  -6.4148  -6.3279  -6.1844

          k =-0.0153 0.2863 0.0000 ( 18132 PWs)   bands (ev):

   -24.5178 -24.1036 -23.6220 -23.2517 -12.1549 -12.1088 -11.6562 -11.5863
    -9.8849  -8.9652  -7.7381  -7.3492  -6.5481  -6.4447  -6.2167  -6.1038

          k = 0.0307-0.5725 0.0000 ( 18166 PWs)   bands (ev):

   -24.2922 -23.9029 -23.8605 -23.5054 -12.2197 -12.2068 -11.5230 -11.4374
    -9.5789  -8.8387  -7.9951  -7.7463  -6.6015  -6.4448  -6.1256  -6.0308

          k = 0.2575-0.1328 0.0000 ( 18109 PWs)   bands (ev):

   -24.5154 -24.1014 -23.6240 -23.2537 -12.1748 -12.1296 -11.6340 -11.5876
    -9.8777  -8.9646  -7.7349  -7.3435  -6.5417  -6.4465  -6.2124  -6.1053

          k = 0.2421 0.1535 0.0000 ( 18132 PWs)   bands (ev):

   -24.5168 -24.1084 -23.6227 -23.2465 -12.0743 -11.9290 -11.9027 -11.6902
    -9.7801  -8.8627  -7.9021  -7.4046  -6.4102  -6.3209  -6.2475  -6.2271

          k = 0.2882-0.7053 0.0000 ( 18147 PWs)   bands (ev):

   -24.2897 -23.9227 -23.8527 -23.4948 -12.1924 -12.1525 -11.6421 -11.4946
    -9.4132  -8.6207  -8.2690  -7.8588  -6.5138  -6.3971  -6.1226  -6.0614

          k = 0.2728-0.4190 0.0000 ( 18128 PWs)   bands (ev):

   -24.2874 -23.9040 -23.8589 -23.5099 -12.2444 -12.2357 -11.4967 -11.4344
    -9.5486  -8.8032  -8.0161  -7.7962  -6.5807  -6.4523  -6.0924  -6.0380

          k =-0.5150 0.2656 0.0000 ( 18184 PWs)   bands (ev):

   -24.2817 -23.9064 -23.8563 -23.5151 -12.2560 -12.2297 -11.5063 -11.4351
    -9.5690  -8.8405  -7.9865  -7.7256  -6.5911  -6.4479  -6.1175  -6.0302

          k =-0.5303 0.5518 0.0000 ( 18128 PWs)   bands (ev):

   -24.2843 -23.9236 -23.8519 -23.4995 -12.2099 -12.1686 -11.6317 -11.4900
    -9.4084  -8.6256  -8.2646  -7.8487  -6.5093  -6.3975  -6.1170  -6.0621

          k =-0.4843-0.3070 0.0000 ( 18166 PWs)   bands (ev):

   -24.2859 -23.9425 -23.8450 -23.4860 -12.1175 -11.9534 -11.9055 -11.5906
    -9.2270  -8.6843  -8.1774  -8.0407  -6.3672  -6.3019  -6.1960  -6.1796

     highest occupied level (ev):    -6.0302

!    total energy              =    -176.32085444 Ry
     estimated scf accuracy    <          3.8E-11 Ry

     convergence has been achieved in   6 iterations

     negative rho (up, down):  4.850E-04 0.000E+00

     Forces acting on atoms (cartesian axes, Ry/au):

     atom    1 type  1   force =     0.00000576    0.00004451   -0.00006374
     atom    2 type  1   force =    -0.00015376    0.00010806    0.00019614
     atom    3 type  1   force =    -0.00012541   -0.00006274    0.00000907
     atom    4 type  1   force =     0.00017443   -0.00004580   -0.00006286
     atom    5 type  1   force =    -0.00010823   -0.00007504   -0.00005960
     atom    6 type  1   force =     0.00007339    0.00007835   -0.00002838
     atom    7 type  1   force =     0.00019486   -0.00001344    0.00005095
     atom    8 type  1   force =    -0.00004441   -0.00003295    0.00010560
     atom    9 type  2   force =     0.00007390    0.00014261    0.00004274
     atom   10 type  2   force =    -0.00000458   -0.00009980   -0.00011163
     atom   11 type  2   force =     0.00005481   -0.00009588    0.00011770
     atom   12 type  2   force =    -0.00014075    0.00005212   -0.00019600

     Total force =     0.000601     Total SCF correction =     0.000008

     Entering Dynamics:    iteration =    61

     <vel(dt)|acc(dt)> =   0.21775792

ATOMIC_POSITIONS (angstrom)
H             4.4732011130        3.7368302604       11.2192826447
H             5.3205307731        4.2994192751       10.0141021289
H             3.2996302044        1.1636773284        8.0886509099
H             3.1453165171        2.8684765490        9.3257324114
H             3.9938641762        3.4317873968        8.1219562380
H             6.3325283011        3.9872530137        8.0936758196
H             3.0034959393        1.8111362277       11.2507942080
H             2.1336346379        3.1818452494       11.2455223905
O             5.2899261134        4.2738553101       11.0149876653
O             3.1767892488        2.8946445633        8.3249417186
O             5.4282820727        4.3759460770        8.2616203741
O             3.0381873539        2.7932355072       11.0784195688



     Writing config-only to output data dir ./output/f-BH.save/
     NEW-OLD atomic charge density approx. for the potential

     negative rho (up, down):  4.850E-04 0.000E+00

     total cpu time spent up to now is     4088.7 secs

     per-process dynamical memory:   210.2 Mb

     Self-consistent Calculation

     iteration #  1     ecut=    60.00 Ry     beta= 0.70
     Davidson diagonalization with overlap
     ethr =  1.00E-06,  avg # of iterations =  2.0

     Threshold (ethr) on eigenvalues was too large:
     Diagonalizing with lowered threshold

     Davidson diagonalization with overlap
     ethr =  4.79E-10,  avg # of iterations =  3.3

     negative rho (up, down):  4.850E-04 0.000E+00

     total cpu time spent up to now is     4100.5 secs

     total energy              =    -176.32085502 Ry
     estimated scf accuracy    <       0.00000025 Ry

     iteration #  2     ecut=    60.00 Ry     beta= 0.70
     Davidson diagonalization with overlap
     ethr =  7.84E-10,  avg # of iterations =  2.0

     negative rho (up, down):  4.850E-04 0.000E+00

     total cpu time spent up to now is     4105.7 secs

     total energy              =    -176.32085505 Ry
     estimated scf accuracy    <       0.00000002 Ry

     iteration #  3     ecut=    60.00 Ry     beta= 0.70
     Davidson diagonalization with overlap
     ethr =  5.03E-11,  avg # of iterations =  2.4

     negative rho (up, down):  4.850E-04 0.000E+00

     total cpu time spent up to now is     4111.4 secs

     total energy              =    -176.32085506 Ry
     estimated scf accuracy    <          5.3E-09 Ry

     iteration #  4     ecut=    60.00 Ry     beta= 0.70
     Davidson diagonalization with overlap
     ethr =  1.64E-11,  avg # of iterations =  2.4

     negative rho (up, down):  4.850E-04 0.000E+00

     total cpu time spent up to now is     4116.8 secs

     total energy              =    -176.32085506 Ry
     estimated scf accuracy    <          1.9E-10 Ry

     iteration #  5     ecut=    60.00 Ry     beta= 0.70
     Davidson diagonalization with overlap
     ethr =  6.09E-13,  avg # of iterations =  2.9

     negative rho (up, down):  4.850E-04 0.000E+00

     total cpu time spent up to now is     4122.6 secs

     End of self-consistent calculation

          k = 0.0000 0.0000 0.0000 ( 18047 PWs)   bands (ev):

   -24.6532 -24.2348 -23.4514 -23.0875 -12.0303 -11.8924 -11.8830 -11.8210
   -10.1146  -9.0467  -7.5405  -7.0206  -6.4329  -6.4144  -6.3272  -6.1843

          k =-0.0153 0.2863 0.0000 ( 18132 PWs)   bands (ev):

   -24.5175 -24.1033 -23.6216 -23.2513 -12.1547 -12.1086 -11.6552 -11.5852
    -9.8848  -8.9642  -7.7385  -7.3487  -6.5477  -6.4444  -6.2161  -6.1034

          k = 0.0307-0.5725 0.0000 ( 18166 PWs)   bands (ev):

   -24.2918 -23.9025 -23.8601 -23.5050 -12.2196 -12.2068 -11.5219 -11.4361
    -9.5786  -8.8375  -7.9957  -7.7460  -6.6013  -6.4446  -6.1249  -6.0302

          k = 0.2575-0.1328 0.0000 ( 18109 PWs)   bands (ev):

   -24.5150 -24.1010 -23.6236 -23.2533 -12.1745 -12.1292 -11.6332 -11.5867
    -9.8779  -8.9639  -7.7350  -7.3427  -6.5413  -6.4461  -6.2118  -6.1049

          k = 0.2421 0.1535 0.0000 ( 18132 PWs)   bands (ev):

   -24.5164 -24.1080 -23.6224 -23.2461 -12.0739 -11.9283 -11.9020 -11.6893
    -9.7802  -8.8620  -7.9022  -7.4040  -6.4099  -6.3202  -6.2468  -6.2269

          k = 0.2882-0.7053 0.0000 ( 18147 PWs)   bands (ev):

   -24.2893 -23.9223 -23.8524 -23.4945 -12.1922 -12.1522 -11.6410 -11.4935
    -9.4131  -8.6198  -8.2694  -7.8584  -6.5136  -6.3969  -6.1219  -6.0607

          k = 0.2728-0.4190 0.0000 ( 18128 PWs)   bands (ev):

   -24.2870 -23.9036 -23.8585 -23.5094 -12.2441 -12.2355 -11.4956 -11.4333
    -9.5487  -8.8023  -8.0165  -7.7955  -6.5805  -6.4521  -6.0918  -6.0373

          k =-0.5150 0.2656 0.0000 ( 18184 PWs)   bands (ev):

   -24.2814 -23.9059 -23.8560 -23.5146 -12.2557 -12.2294 -11.5053 -11.4341
    -9.5695  -8.8399  -7.9866  -7.7246  -6.5909  -6.4478  -6.1168  -6.0296

          k =-0.5303 0.5518 0.0000 ( 18128 PWs)   bands (ev):

   -24.2840 -23.9231 -23.8516 -23.4991 -12.2095 -12.1682 -11.6307 -11.4891
    -9.4088  -8.6252  -8.2645  -7.8478  -6.5091  -6.3973  -6.1163  -6.0614

          k =-0.4843-0.3070 0.0000 ( 18166 PWs)   bands (ev):

   -24.2854 -23.9421 -23.8446 -23.4857 -12.1171 -11.9530 -11.9044 -11.5897
    -9.2270  -8.6847  -8.1766  -8.0402  -6.3671  -6.3016  -6.1953  -6.1789

     highest occupied level (ev):    -6.0296

!    total energy              =    -176.32085506 Ry
     estimated scf accuracy    <          5.7E-11 Ry

     convergence has been achieved in   5 iterations

     negative rho (up, down):  4.850E-04 0.000E+00

     Forces acting on atoms (cartesian axes, Ry/au):

     atom    1 type  1   force =    -0.00012515   -0.00002988    0.00000688
     atom    2 type  1   force =    -0.00012716    0.00013190    0.00025146
     atom    3 type  1   force =    -0.00009984   -0.00012615    0.00005785
     atom    4 type  1   force =     0.00014771   -0.00007089   -0.00015317
     atom    5 type  1   force =     0.00003248    0.00000248   -0.00011688
     atom    6 type  1   force =     0.00010078    0.00006605   -0.00003467
     atom    7 type  1   force =     0.00014915    0.00001927    0.00002189
     atom    8 type  1   force =    -0.00002228   -0.00005646    0.00008110
     atom    9 type  2   force =     0.00022143    0.00021674   -0.00008331
     atom   10 type  2   force =    -0.00015856   -0.00016199    0.00002649
     atom   11 type  2   force =     0.00002848   -0.00001969    0.00008787
     atom   12 type  2   force =    -0.00014705    0.00002861   -0.00014550

     Total force =     0.000681     Total SCF correction =     0.000013

     Entering Dynamics:    iteration =    62

     <vel(dt)|acc(dt)> =   0.90072743

ATOMIC_POSITIONS (angstrom)
H             4.4731661899        3.7369310799       11.2196573974
H             5.3203771130        4.2995094384       10.0148326475
H             3.2992987414        1.1633348937        8.0884715213
H             3.1455275306        2.8683630397        9.3251680161
H             3.9937960837        3.4315986223        8.1214822999
H             6.3324195835        3.9870422968        8.0938265349
H             3.0039529554        1.8116020731       11.2508620780
H             2.1336932802        3.1821389592       11.2455618186
O             5.2898225941        4.2740770986       11.0157320486
O             3.1769552116        2.8942494978        8.3242979885
O             5.4283088374        4.3756931090        8.2623988339
O             3.0380683301        2.7935666495       11.0773948933



     Writing config-only to output data dir ./output/f-BH.save/
     NEW-OLD atomic charge density approx. for the potential

     negative rho (up, down):  4.850E-04 0.000E+00

     total cpu time spent up to now is     4135.4 secs

     per-process dynamical memory:   210.2 Mb

     Self-consistent Calculation

     iteration #  1     ecut=    60.00 Ry     beta= 0.70
     Davidson diagonalization with overlap
     ethr =  1.00E-06,  avg # of iterations =  2.0

     Threshold (ethr) on eigenvalues was too large:
     Diagonalizing with lowered threshold

     Davidson diagonalization with overlap
     ethr =  2.71E-09,  avg # of iterations =  3.3

     negative rho (up, down):  4.851E-04 0.000E+00

     total cpu time spent up to now is     4147.0 secs

     total energy              =    -176.32085600 Ry
     estimated scf accuracy    <       0.00000130 Ry

     iteration #  2     ecut=    60.00 Ry     beta= 0.70
     Davidson diagonalization with overlap
     ethr =  4.08E-09,  avg # of iterations =  2.0

     negative rho (up, down):  4.851E-04 0.000E+00

     total cpu time spent up to now is     4152.1 secs

     total energy              =    -176.32085614 Ry
     estimated scf accuracy    <       0.00000005 Ry

     iteration #  3     ecut=    60.00 Ry     beta= 0.70
     Davidson diagonalization with overlap
     ethr =  1.71E-10,  avg # of iterations =  2.6

     negative rho (up, down):  4.851E-04 0.000E+00

     total cpu time spent up to now is     4157.7 secs

     total energy              =    -176.32085615 Ry
     estimated scf accuracy    <          7.9E-09 Ry

     iteration #  4     ecut=    60.00 Ry     beta= 0.70
     Davidson diagonalization with overlap
     ethr =  2.46E-11,  avg # of iterations =  2.9

     negative rho (up, down):  4.851E-04 0.000E+00

     total cpu time spent up to now is     4163.5 secs

     total energy              =    -176.32085615 Ry
     estimated scf accuracy    <          1.6E-09 Ry

     iteration #  5     ecut=    60.00 Ry     beta= 0.70
     Davidson diagonalization with overlap
     ethr =  5.02E-12,  avg # of iterations =  2.9

     negative rho (up, down):  4.851E-04 0.000E+00

     total cpu time spent up to now is     4169.2 secs

     End of self-consistent calculation

          k = 0.0000 0.0000 0.0000 ( 18047 PWs)   bands (ev):

   -24.6523 -24.2339 -23.4504 -23.0864 -12.0294 -11.8911 -11.8809 -11.8193
   -10.1145  -9.0453  -7.5407  -7.0190  -6.4316  -6.4135  -6.3256  -6.1837

          k =-0.0153 0.2863 0.0000 ( 18132 PWs)   bands (ev):

   -24.5165 -24.1024 -23.6206 -23.2503 -12.1541 -12.1077 -11.6527 -11.5830
    -9.8845  -8.9626  -7.7390  -7.3475  -6.5467  -6.4435  -6.2146  -6.1023

          k = 0.0307-0.5725 0.0000 ( 18166 PWs)   bands (ev):

   -24.2908 -23.9015 -23.8592 -23.5040 -12.2191 -12.2062 -11.5191 -11.4336
    -9.5778  -8.8355  -7.9969  -7.7452  -6.6006  -6.4441  -6.1234  -6.0287

          k = 0.2575-0.1328 0.0000 ( 18109 PWs)   bands (ev):

   -24.5141 -24.1001 -23.6226 -23.2522 -12.1733 -12.1281 -11.6314 -11.5845
    -9.8780  -8.9625  -7.7350  -7.3410  -6.5405  -6.4453  -6.2104  -6.1039

          k = 0.2421 0.1535 0.0000 ( 18132 PWs)   bands (ev):

   -24.5154 -24.1071 -23.6214 -23.2451 -12.0731 -11.9266 -11.9003 -11.6873
    -9.7802  -8.8608  -7.9022  -7.4025  -6.4091  -6.3188  -6.2452  -6.2263

          k = 0.2882-0.7053 0.0000 ( 18147 PWs)   bands (ev):

   -24.2883 -23.9213 -23.8515 -23.4936 -12.1916 -12.1512 -11.6385 -11.4911
    -9.4127  -8.6184  -8.2699  -7.8575  -6.5130  -6.3964  -6.1205  -6.0592

          k = 0.2728-0.4190 0.0000 ( 18128 PWs)   bands (ev):

   -24.2861 -23.9026 -23.8576 -23.5083 -12.2432 -12.2348 -11.4932 -11.4309
    -9.5485  -8.8007  -8.0172  -7.7940  -6.5799  -6.4516  -6.0903  -6.0359

          k =-0.5150 0.2656 0.0000 ( 18184 PWs)   bands (ev):

   -24.2805 -23.9049 -23.8551 -23.5135 -12.2544 -12.2286 -11.5033 -11.4317
    -9.5699  -8.8385  -7.9868  -7.7225  -6.5904  -6.4473  -6.1153  -6.0283

          k =-0.5303 0.5518 0.0000 ( 18128 PWs)   bands (ev):

   -24.2830 -23.9221 -23.8507 -23.4981 -12.2085 -12.1669 -11.6285 -11.4870
    -9.4090  -8.6243  -8.2642  -7.8461  -6.5087  -6.3966  -6.1149  -6.0600

          k =-0.4843-0.3070 0.0000 ( 18166 PWs)   bands (ev):

   -24.2844 -23.9410 -23.8437 -23.4849 -12.1162 -11.9521 -11.9016 -11.5876
    -9.2267  -8.6856  -8.1749  -8.0390  -6.3666  -6.3008  -6.1941  -6.1771

     highest occupied level (ev):    -6.0283

!    total energy              =    -176.32085615 Ry
     estimated scf accuracy    <          7.9E-11 Ry

     convergence has been achieved in   5 iterations

     negative rho (up, down):  4.851E-04 0.000E+00

     Forces acting on atoms (cartesian axes, Ry/au):

     atom    1 type  1   force =    -0.00022481   -0.00005597    0.00007822
     atom    2 type  1   force =    -0.00006343    0.00016911    0.00023241
     atom    3 type  1   force =    -0.00005790   -0.00020722    0.00012103
     atom    4 type  1   force =     0.00009279   -0.00010465   -0.00022880
     atom    5 type  1   force =     0.00018342    0.00005754   -0.00018004
     atom    6 type  1   force =     0.00013248    0.00005105   -0.00002823
     atom    7 type  1   force =     0.00008239    0.00007787   -0.00002748
     atom    8 type  1   force =    -0.00003184   -0.00007393    0.00003536
     atom    9 type  2   force =     0.00029735    0.00024323   -0.00014556
     atom   10 type  2   force =    -0.00030235   -0.00019534    0.00015651
     atom   11 type  2   force =    -0.00002556    0.00008710    0.00002726
     atom   12 type  2   force =    -0.00008255   -0.00004878   -0.00004069

     Total force =     0.000857     Total SCF correction =     0.000029

     Entering Dynamics:    iteration =    63

     <vel(dt)|acc(dt)> =   0.97427994

ATOMIC_POSITIONS (angstrom)
H             4.4733344406        3.7370995886       11.2205821025
H             5.3201864868        4.2997784361       10.0161255382
H             3.2988797749        1.1625379906        8.0884513708
H             3.1457486996        2.8680598776        9.3240887382
H             3.9935587555        3.4313136665        8.1204836705
H             6.3322504981        3.9864343606        8.0939417205
H             3.0044479447        1.8125538507       11.2508667843
H             2.1338440226        3.1828839564       11.2455989003
O             5.2898764247        4.2745874388       11.0169931695
O             3.1770147198        2.8935319262        8.3231706702
O             5.4283420985        4.3750890677        8.2636195988
O             3.0379025850        2.7942365983       11.0757638140



     Writing config-only to output data dir ./output/f-BH.save/
     NEW-OLD atomic charge density approx. for the potential

     negative rho (up, down):  4.850E-04 0.000E+00

     total cpu time spent up to now is     4182.0 secs

     per-process dynamical memory:   210.2 Mb

     Self-consistent Calculation

     iteration #  1     ecut=    60.00 Ry     beta= 0.70
     Davidson diagonalization with overlap
     ethr =  1.00E-06,  avg # of iterations =  2.0

     Threshold (ethr) on eigenvalues was too large:
     Diagonalizing with lowered threshold

     Davidson diagonalization with overlap
     ethr =  7.93E-09,  avg # of iterations =  3.2

     negative rho (up, down):  4.851E-04 0.000E+00

     total cpu time spent up to now is     4194.0 secs

     total energy              =    -176.32085692 Ry
     estimated scf accuracy    <       0.00000365 Ry

     iteration #  2     ecut=    60.00 Ry     beta= 0.70
     Davidson diagonalization with overlap
     ethr =  1.14E-08,  avg # of iterations =  2.0

     negative rho (up, down):  4.852E-04 0.000E+00

     total cpu time spent up to now is     4199.1 secs

     total energy              =    -176.32085730 Ry
     estimated scf accuracy    <       0.00000016 Ry

     iteration #  3     ecut=    60.00 Ry     beta= 0.70
     Davidson diagonalization with overlap
     ethr =  5.07E-10,  avg # of iterations =  2.5

     negative rho (up, down):  4.851E-04 0.000E+00

     total cpu time spent up to now is     4204.6 secs

     total energy              =    -176.32085733 Ry
     estimated scf accuracy    <       0.00000002 Ry

     iteration #  4     ecut=    60.00 Ry     beta= 0.70
     Davidson diagonalization with overlap
     ethr =  7.08E-11,  avg # of iterations =  2.9

     negative rho (up, down):  4.851E-04 0.000E+00

     total cpu time spent up to now is     4210.7 secs

     total energy              =    -176.32085733 Ry
     estimated scf accuracy    <          4.6E-09 Ry

     iteration #  5     ecut=    60.00 Ry     beta= 0.70
     Davidson diagonalization with overlap
     ethr =  1.43E-11,  avg # of iterations =  2.0

     negative rho (up, down):  4.851E-04 0.000E+00

     total cpu time spent up to now is     4216.2 secs

     total energy              =    -176.32085733 Ry
     estimated scf accuracy    <          1.7E-10 Ry

     iteration #  6     ecut=    60.00 Ry     beta= 0.70
     Davidson diagonalization with overlap
     ethr =  5.40E-13,  avg # of iterations =  3.1

     negative rho (up, down):  4.851E-04 0.000E+00

     total cpu time spent up to now is     4222.0 secs

     End of self-consistent calculation

          k = 0.0000 0.0000 0.0000 ( 18047 PWs)   bands (ev):

   -24.6507 -24.2325 -23.4488 -23.0847 -12.0282 -11.8891 -11.8774 -11.8165
   -10.1139  -9.0433  -7.5409  -7.0166  -6.4293  -6.4119  -6.3232  -6.1830

          k =-0.0153 0.2863 0.0000 ( 18132 PWs)   bands (ev):

   -24.5149 -24.1009 -23.6191 -23.2486 -12.1528 -12.1061 -11.6487 -11.5798
    -9.8838  -8.9606  -7.7397  -7.3455  -6.5450  -6.4420  -6.2124  -6.1007

          k = 0.0307-0.5725 0.0000 ( 18166 PWs)   bands (ev):

   -24.2893 -23.8998 -23.8579 -23.5023 -12.2181 -12.2048 -11.5146 -11.4300
    -9.5767  -8.8331  -7.9984  -7.7437  -6.5991  -6.4433  -6.1211  -6.0264

          k = 0.2575-0.1328 0.0000 ( 18109 PWs)   bands (ev):

   -24.5125 -24.0986 -23.6211 -23.2506 -12.1714 -12.1262 -11.6285 -11.5810
    -9.8777  -8.9606  -7.7350  -7.3383  -6.5391  -6.4438  -6.2084  -6.1027

          k = 0.2421 0.1535 0.0000 ( 18132 PWs)   bands (ev):

   -24.5139 -24.1056 -23.6198 -23.2434 -12.0718 -11.9240 -11.8973 -11.6841
    -9.7798  -8.8591  -7.9021  -7.4003  -6.4077  -6.3166  -6.2428  -6.2255

          k = 0.2882-0.7053 0.0000 ( 18147 PWs)   bands (ev):

   -24.2868 -23.9195 -23.8502 -23.4920 -12.1905 -12.1492 -11.6345 -11.4876
    -9.4118  -8.6166  -8.2704  -7.8557  -6.5118  -6.3956  -6.1182  -6.0567

          k = 0.2728-0.4190 0.0000 ( 18128 PWs)   bands (ev):

   -24.2844 -23.9009 -23.8564 -23.5068 -12.2414 -12.2335 -11.4894 -11.4272
    -9.5480  -8.7985  -8.0180  -7.7915  -6.5789  -6.4508  -6.0882  -6.0337

          k =-0.5150 0.2656 0.0000 ( 18184 PWs)   bands (ev):

   -24.2787 -23.9032 -23.8538 -23.5120 -12.2522 -12.2271 -11.5001 -11.4279
    -9.5700  -8.8364  -7.9871  -7.7194  -6.5895  -6.4464  -6.1132  -6.0266

          k =-0.5303 0.5518 0.0000 ( 18128 PWs)   bands (ev):

   -24.2814 -23.9203 -23.8494 -23.4966 -12.2068 -12.1648 -11.6251 -11.4836
    -9.4089  -8.6229  -8.2638  -7.8435  -6.5080  -6.3955  -6.1126  -6.0580

          k =-0.4843-0.3070 0.0000 ( 18166 PWs)   bands (ev):

   -24.2829 -23.9391 -23.8424 -23.4833 -12.1150 -11.9507 -11.8972 -11.5843
    -9.2259  -8.6869  -8.1725  -8.0370  -6.3658  -6.2996  -6.1921  -6.1744

     highest occupied level (ev):    -6.0264

!    total energy              =    -176.32085733 Ry
     estimated scf accuracy    <          2.4E-11 Ry

     convergence has been achieved in   6 iterations

     negative rho (up, down):  4.851E-04 0.000E+00

     Forces acting on atoms (cartesian axes, Ry/au):

     atom    1 type  1   force =    -0.00023598    0.00000842    0.00011011
     atom    2 type  1   force =     0.00003066    0.00019611    0.00012825
     atom    3 type  1   force =    -0.00000468   -0.00021559    0.00015743
     atom    4 type  1   force =     0.00001669   -0.00012704   -0.00024508
     atom    5 type  1   force =     0.00026033    0.00002838   -0.00020526
     atom    6 type  1   force =     0.00012490    0.00004624    0.00001073
     atom    7 type  1   force =     0.00001173    0.00007496   -0.00007063
     atom    8 type  1   force =    -0.00003222   -0.00009206   -0.00004396
     atom    9 type  2   force =     0.00023614    0.00018261   -0.00009771
     atom   10 type  2   force =    -0.00034106   -0.00014859    0.00019419
     atom   11 type  2   force =    -0.00007620    0.00012318   -0.00005069
     atom   12 type  2   force =     0.00000969   -0.00007663    0.00011263

     Total force =     0.000860     Total SCF correction =     0.000009

     Entering Dynamics:    iteration =    64

     <vel(dt)|acc(dt)> =   0.97483349

ATOMIC_POSITIONS (angstrom)
H             4.4738091314        3.7374070370       11.2219649881
H             5.3200422454        4.3003494425       10.0176954824
H             3.2985623201        1.1613209536        8.0888481510
H             3.1458780406        2.8675134569        9.3226424169
H             3.9931310593        3.4309305901        8.1190437740
H             6.3321297697        3.9854946234        8.0939156723
H             3.0047172890        1.8137828435       11.2507203067
H             2.1340523240        3.1839862309       11.2455855537
O             5.2902329781        4.2753800404       11.0184938367
O             3.1767415678        2.8926483549        8.3218075981
O             5.4283489329        4.3741277582        8.2648584043
O             3.0377407923        2.7951654266       11.0741098936



     Writing config-only to output data dir ./output/f-BH.save/
     NEW-OLD atomic charge density approx. for the potential

     negative rho (up, down):  4.850E-04 0.000E+00

     total cpu time spent up to now is     4234.8 secs

     per-process dynamical memory:   210.2 Mb

     Self-consistent Calculation

     iteration #  1     ecut=    60.00 Ry     beta= 0.70
     Davidson diagonalization with overlap
     ethr =  1.00E-06,  avg # of iterations =  2.1

     Threshold (ethr) on eigenvalues was too large:
     Diagonalizing with lowered threshold

     Davidson diagonalization with overlap
     ethr =  1.14E-08,  avg # of iterations =  3.1

     negative rho (up, down):  4.851E-04 0.000E+00

     total cpu time spent up to now is     4246.8 secs

     total energy              =    -176.32085747 Ry
     estimated scf accuracy    <       0.00000513 Ry

     iteration #  2     ecut=    60.00 Ry     beta= 0.70
     Davidson diagonalization with overlap
     ethr =  1.60E-08,  avg # of iterations =  2.0

     negative rho (up, down):  4.851E-04 0.000E+00

     total cpu time spent up to now is     4251.9 secs

     total energy              =    -176.32085799 Ry
     estimated scf accuracy    <       0.00000031 Ry

     iteration #  3     ecut=    60.00 Ry     beta= 0.70
     Davidson diagonalization with overlap
     ethr =  9.62E-10,  avg # of iterations =  2.4

     negative rho (up, down):  4.851E-04 0.000E+00

     total cpu time spent up to now is     4257.7 secs

     total energy              =    -176.32085804 Ry
     estimated scf accuracy    <       0.00000009 Ry

     iteration #  4     ecut=    60.00 Ry     beta= 0.70
     Davidson diagonalization with overlap
     ethr =  2.91E-10,  avg # of iterations =  2.4

     negative rho (up, down):  4.851E-04 0.000E+00

     total cpu time spent up to now is     4263.2 secs

     total energy              =    -176.32085806 Ry
     estimated scf accuracy    <          5.2E-09 Ry

     iteration #  5     ecut=    60.00 Ry     beta= 0.70
     Davidson diagonalization with overlap
     ethr =  1.63E-11,  avg # of iterations =  2.2

     negative rho (up, down):  4.851E-04 0.000E+00

     total cpu time spent up to now is     4268.8 secs

     total energy              =    -176.32085806 Ry
     estimated scf accuracy    <          1.2E-09 Ry

     iteration #  6     ecut=    60.00 Ry     beta= 0.70
     Davidson diagonalization with overlap
     ethr =  3.72E-12,  avg # of iterations =  2.2

     negative rho (up, down):  4.851E-04 0.000E+00

     total cpu time spent up to now is     4274.1 secs

     End of self-consistent calculation

          k = 0.0000 0.0000 0.0000 ( 18047 PWs)   bands (ev):

   -24.6492 -24.2313 -23.4471 -23.0830 -12.0269 -11.8869 -11.8741 -11.8134
   -10.1127  -9.0421  -7.5409  -7.0144  -6.4274  -6.4102  -6.3211  -6.1821

          k =-0.0153 0.2863 0.0000 ( 18132 PWs)   bands (ev):

   -24.5134 -24.0997 -23.6174 -23.2470 -12.1513 -12.1042 -11.6442 -11.5770
    -9.8827  -8.9595  -7.7402  -7.3437  -6.5430  -6.4407  -6.2105  -6.0991

          k = 0.0307-0.5725 0.0000 ( 18166 PWs)   bands (ev):

   -24.2877 -23.8985 -23.8565 -23.5006 -12.2168 -12.2027 -11.5096 -11.4267
    -9.5756  -8.8321  -7.9998  -7.7419  -6.5972  -6.4427  -6.1190  -6.0242

          k = 0.2575-0.1328 0.0000 ( 18109 PWs)   bands (ev):

   -24.5108 -24.0973 -23.6195 -23.2491 -12.1691 -12.1243 -11.6258 -11.5773
    -9.8769  -8.9591  -7.7349  -7.3361  -6.5377  -6.4423  -6.2066  -6.1018

          k = 0.2421 0.1535 0.0000 ( 18132 PWs)   bands (ev):

   -24.5124 -24.1044 -23.6181 -23.2418 -12.0705 -11.9214 -11.8940 -11.6810
    -9.7788  -8.8581  -7.9018  -7.3984  -6.4062  -6.3147  -6.2408  -6.2244

          k = 0.2882-0.7053 0.0000 ( 18147 PWs)   bands (ev):

   -24.2854 -23.9180 -23.8487 -23.4903 -12.1892 -12.1469 -11.6302 -11.4844
    -9.4108  -8.6158  -8.2708  -7.8540  -6.5102  -6.3950  -6.1163  -6.0542

          k = 0.2728-0.4190 0.0000 ( 18128 PWs)   bands (ev):

   -24.2826 -23.8995 -23.8549 -23.5054 -12.2392 -12.2317 -11.4853 -11.4237
    -9.5471  -8.7971  -8.0190  -7.7894  -6.5777  -6.4499  -6.0865  -6.0319

          k =-0.5150 0.2656 0.0000 ( 18184 PWs)   bands (ev):

   -24.2767 -23.9020 -23.8523 -23.5109 -12.2494 -12.2255 -11.4971 -11.4240
    -9.5694  -8.8343  -7.9876  -7.7171  -6.5888  -6.4452  -6.1114  -6.0256

          k =-0.5303 0.5518 0.0000 ( 18128 PWs)   bands (ev):

   -24.2798 -23.9187 -23.8480 -23.4952 -12.2048 -12.1625 -11.6215 -11.4804
    -9.4082  -8.6218  -8.2635  -7.8416  -6.5072  -6.3941  -6.1106  -6.0565

          k =-0.4843-0.3070 0.0000 ( 18166 PWs)   bands (ev):

   -24.2817 -23.9374 -23.8409 -23.4816 -12.1136 -11.9491 -11.8925 -11.5813
    -9.2247  -8.6884  -8.1704  -8.0350  -6.3647  -6.2983  -6.1905  -6.1718

     highest occupied level (ev):    -6.0242

!    total energy              =    -176.32085806 Ry
     estimated scf accuracy    <          7.2E-11 Ry

     convergence has been achieved in   6 iterations

     negative rho (up, down):  4.851E-04 0.000E+00

     Forces acting on atoms (cartesian axes, Ry/au):

     atom    1 type  1   force =    -0.00011582    0.00017297    0.00006699
     atom    2 type  1   force =     0.00012852    0.00017017   -0.00002836
     atom    3 type  1   force =     0.00001767   -0.00006116    0.00009757
     atom    4 type  1   force =    -0.00006432   -0.00010071   -0.00007613
     atom    5 type  1   force =     0.00011829   -0.00015404   -0.00013333
     atom    6 type  1   force =     0.00002659    0.00004991    0.00009409
     atom    7 type  1   force =    -0.00002361    0.00004137   -0.00007387
     atom    8 type  1   force =    -0.00005366   -0.00008390   -0.00012007
     atom    9 type  2   force =    -0.00001721    0.00003364    0.00004157
     atom   10 type  2   force =    -0.00010703    0.00002961   -0.00001162
     atom   11 type  2   force =    -0.00005876    0.00000381   -0.00009842
     atom   12 type  2   force =     0.00014934   -0.00010167    0.00024157

     Total force =     0.000589     Total SCF correction =     0.000021

     Entering Dynamics:    iteration =    65

     <vel(dt)|acc(dt)> =  -0.67620278

ATOMIC_POSITIONS (angstrom)
H             4.4737968291        3.7374479922       11.2219248835
H             5.3200633369        4.3004115720       10.0176283005
H             3.2985822458        1.1613364988        8.0889041820
H             3.1458699229        2.8674887287        9.3226880081
H             3.9931368079        3.4309008594        8.1190534087
H             6.3321705993        3.9855486346        8.0939072542
H             3.0046890001        1.8137284719       11.2507051634
H             2.1340221553        3.1839188400       11.2455779451
O             5.2902559908        4.2753906579       11.0184155896
O             3.1766930421        2.8926865768        8.3218654575
O             5.4283443368        4.3741323189        8.2647548454
O             3.0377621839        2.7951156068       11.0742610399



     Writing config-only to output data dir ./output/f-BH.save/
     NEW-OLD atomic charge density approx. for the potential

     negative rho (up, down):  4.851E-04 0.000E+00

     total cpu time spent up to now is     4286.9 secs

     per-process dynamical memory:   210.2 Mb

     Self-consistent Calculation

     iteration #  1     ecut=    60.00 Ry     beta= 0.70
     Davidson diagonalization with overlap
     ethr =  1.00E-06,  avg # of iterations =  2.0

     Threshold (ethr) on eigenvalues was too large:
     Diagonalizing with lowered threshold

     Davidson diagonalization with overlap
     ethr =  3.83E-11,  avg # of iterations =  4.2

     negative rho (up, down):  4.851E-04 0.000E+00

     total cpu time spent up to now is     4299.0 secs

     total energy              =    -176.32085823 Ry
     estimated scf accuracy    <       0.00000003 Ry

     iteration #  2     ecut=    60.00 Ry     beta= 0.70
     Davidson diagonalization with overlap
     ethr =  8.06E-11,  avg # of iterations =  2.0

     negative rho (up, down):  4.851E-04 0.000E+00

     total cpu time spent up to now is     4304.4 secs

     total energy              =    -176.32085823 Ry
     estimated scf accuracy    <          2.8E-09 Ry

     iteration #  3     ecut=    60.00 Ry     beta= 0.70
     Davidson diagonalization with overlap
     ethr =  8.86E-12,  avg # of iterations =  2.4

     negative rho (up, down):  4.851E-04 0.000E+00

     total cpu time spent up to now is     4310.3 secs

     total energy              =    -176.32085823 Ry
     estimated scf accuracy    <          7.0E-10 Ry

     iteration #  4     ecut=    60.00 Ry     beta= 0.70
     Davidson diagonalization with overlap
     ethr =  2.20E-12,  avg # of iterations =  2.3

     negative rho (up, down):  4.851E-04 0.000E+00

     total cpu time spent up to now is     4315.5 secs

     End of self-consistent calculation

          k = 0.0000 0.0000 0.0000 ( 18047 PWs)   bands (ev):

   -24.6493 -24.2315 -23.4473 -23.0832 -12.0271 -11.8871 -11.8745 -11.8136
   -10.1126  -9.0424  -7.5409  -7.0147  -6.4277  -6.4103  -6.3214  -6.1822

          k =-0.0153 0.2863 0.0000 ( 18132 PWs)   bands (ev):

   -24.5135 -24.0999 -23.6176 -23.2472 -12.1514 -12.1044 -11.6445 -11.5774
    -9.8827  -8.9598  -7.7402  -7.3439  -6.5432  -6.4410  -6.2108  -6.0993

          k = 0.0307-0.5725 0.0000 ( 18166 PWs)   bands (ev):

   -24.2878 -23.8987 -23.8566 -23.5009 -12.2169 -12.2029 -11.5099 -11.4271
    -9.5757  -8.8325  -7.9997  -7.7421  -6.5973  -6.4429  -6.1193  -6.0245

          k = 0.2575-0.1328 0.0000 ( 18109 PWs)   bands (ev):

   -24.5110 -24.0975 -23.6197 -23.2493 -12.1692 -12.1245 -11.6261 -11.5776
    -9.8768  -8.9594  -7.7349  -7.3364  -6.5378  -6.4424  -6.2068  -6.1020

          k = 0.2421 0.1535 0.0000 ( 18132 PWs)   bands (ev):

   -24.5126 -24.1046 -23.6182 -23.2420 -12.0706 -11.9216 -11.8943 -11.6814
    -9.7788  -8.8583  -7.9018  -7.3987  -6.4063  -6.3150  -6.2411  -6.2245

          k = 0.2882-0.7053 0.0000 ( 18147 PWs)   bands (ev):

   -24.2856 -23.9182 -23.8488 -23.4905 -12.1893 -12.1471 -11.6306 -11.4848
    -9.4108  -8.6161  -8.2707  -7.8542  -6.5103  -6.3952  -6.1165  -6.0545

          k = 0.2728-0.4190 0.0000 ( 18128 PWs)   bands (ev):

   -24.2828 -23.8997 -23.8551 -23.5056 -12.2393 -12.2319 -11.4856 -11.4241
    -9.5471  -8.7974  -8.0189  -7.7897  -6.5778  -6.4499  -6.0867  -6.0321

          k =-0.5150 0.2656 0.0000 ( 18184 PWs)   bands (ev):

   -24.2769 -23.9022 -23.8524 -23.5111 -12.2495 -12.2256 -11.4974 -11.4243
    -9.5693  -8.8346  -7.9876  -7.7175  -6.5889  -6.4453  -6.1116  -6.0258

          k =-0.5303 0.5518 0.0000 ( 18128 PWs)   bands (ev):

   -24.2800 -23.9189 -23.8481 -23.4954 -12.2050 -12.1627 -11.6218 -11.4808
    -9.4081  -8.6219  -8.2635  -7.8419  -6.5073  -6.3942  -6.1108  -6.0568

          k =-0.4843-0.3070 0.0000 ( 18166 PWs)   bands (ev):

   -24.2820 -23.9376 -23.8410 -23.4818 -12.1138 -11.9492 -11.8929 -11.5817
    -9.2247  -8.6883  -8.1707  -8.0352  -6.3648  -6.2984  -6.1908  -6.1722

     highest occupied level (ev):    -6.0245

!    total energy              =    -176.32085823 Ry
     estimated scf accuracy    <          1.8E-11 Ry

     convergence has been achieved in   4 iterations

     negative rho (up, down):  4.851E-04 0.000E+00

     Forces acting on atoms (cartesian axes, Ry/au):

     atom    1 type  1   force =    -0.00008921    0.00018200    0.00005395
     atom    2 type  1   force =     0.00012074    0.00015684   -0.00003860
     atom    3 type  1   force =     0.00000910   -0.00004123    0.00008161
     atom    4 type  1   force =    -0.00005917   -0.00009029   -0.00006251
     atom    5 type  1   force =     0.00009507   -0.00016115   -0.00012008
     atom    6 type  1   force =     0.00001899    0.00004489    0.00009468
     atom    7 type  1   force =    -0.00001702    0.00000739   -0.00005791
     atom    8 type  1   force =    -0.00003200   -0.00008702   -0.00011753
     atom    9 type  2   force =    -0.00004390    0.00001847    0.00005856
     atom   10 type  2   force =    -0.00007810    0.00003331   -0.00002610
     atom   11 type  2   force =    -0.00005172   -0.00001407   -0.00008449
     atom   12 type  2   force =     0.00012724   -0.00004913    0.00021843

     Total force =     0.000534     Total SCF correction =     0.000010

     Entering Dynamics:    iteration =    66

     <vel(dt)|acc(dt)> =   0.90054194

ATOMIC_POSITIONS (angstrom)
H             4.4736611710        3.7377798296       11.2218195450
H             5.3201746138        4.3008267732       10.0174619932
H             3.2985669279        1.1613214155        8.0891508881
H             3.1458799933        2.8672964885        9.3227363205
H             3.9932129011        3.4306183488        8.1189223984
H             6.3323715646        3.9858098857        8.0939631272
H             3.0046981754        1.8135130564       11.2506492605
H             2.1338997019        3.1835612063       11.2454972078
O             5.2902972358        4.2755057628       11.0182411919
O             3.1764669673        2.8927735078        8.3219985850
O             5.4282996252        4.3740966456        8.2644224321
O             3.0378575735        2.7950038378       11.0748231283



     Writing config-only to output data dir ./output/f-BH.save/
     NEW-OLD atomic charge density approx. for the potential

     negative rho (up, down):  4.851E-04 0.000E+00

     total cpu time spent up to now is     4328.2 secs

     per-process dynamical memory:   210.2 Mb

     Self-consistent Calculation

     iteration #  1     ecut=    60.00 Ry     beta= 0.70
     Davidson diagonalization with overlap
     ethr =  1.00E-06,  avg # of iterations =  2.0

     Threshold (ethr) on eigenvalues was too large:
     Diagonalizing with lowered threshold

     Davidson diagonalization with overlap
     ethr =  6.07E-10,  avg # of iterations =  3.3

     negative rho (up, down):  4.850E-04 0.000E+00

     total cpu time spent up to now is     4339.6 secs

     total energy              =    -176.32085891 Ry
     estimated scf accuracy    <       0.00000031 Ry

     iteration #  2     ecut=    60.00 Ry     beta= 0.70
     Davidson diagonalization with overlap
     ethr =  9.65E-10,  avg # of iterations =  2.0

     negative rho (up, down):  4.850E-04 0.000E+00

     total cpu time spent up to now is     4345.1 secs

     total energy              =    -176.32085896 Ry
     estimated scf accuracy    <       0.00000002 Ry

     iteration #  3     ecut=    60.00 Ry     beta= 0.70
     Davidson diagonalization with overlap
     ethr =  7.75E-11,  avg # of iterations =  2.1

     negative rho (up, down):  4.850E-04 0.000E+00

     total cpu time spent up to now is     4350.8 secs

     total energy              =    -176.32085896 Ry
     estimated scf accuracy    <          4.9E-09 Ry

     iteration #  4     ecut=    60.00 Ry     beta= 0.70
     Davidson diagonalization with overlap
     ethr =  1.53E-11,  avg # of iterations =  2.1

     negative rho (up, down):  4.850E-04 0.000E+00

     total cpu time spent up to now is     4356.2 secs

     total energy              =    -176.32085896 Ry
     estimated scf accuracy    <          2.8E-10 Ry

     iteration #  5     ecut=    60.00 Ry     beta= 0.70
     Davidson diagonalization with overlap
     ethr =  8.78E-13,  avg # of iterations =  2.0

     negative rho (up, down):  4.850E-04 0.000E+00

     total cpu time spent up to now is     4361.6 secs

     End of self-consistent calculation

          k = 0.0000 0.0000 0.0000 ( 18047 PWs)   bands (ev):

   -24.6500 -24.2323 -23.4480 -23.0840 -12.0275 -11.8876 -11.8761 -11.8148
   -10.1125  -9.0436  -7.5408  -7.0159  -6.4288  -6.4109  -6.3227  -6.1826

          k =-0.0153 0.2863 0.0000 ( 18132 PWs)   bands (ev):

   -24.5142 -24.1007 -23.6183 -23.2480 -12.1519 -12.1051 -11.6456 -11.5787
    -9.8827  -8.9612  -7.7400  -7.3448  -6.5435  -6.4419  -6.2121  -6.1002

          k = 0.0307-0.5725 0.0000 ( 18166 PWs)   bands (ev):

   -24.2884 -23.8998 -23.8571 -23.5018 -12.2173 -12.2034 -11.5110 -11.4285
    -9.5758  -8.8344  -7.9992  -7.7426  -6.5975  -6.4435  -6.1207  -6.0258

          k = 0.2575-0.1328 0.0000 ( 18109 PWs)   bands (ev):

   -24.5117 -24.0984 -23.6203 -23.2501 -12.1698 -12.1253 -11.6272 -11.5789
    -9.8767  -8.9605  -7.7351  -7.3379  -6.5386  -6.4428  -6.2077  -6.1028

          k = 0.2421 0.1535 0.0000 ( 18132 PWs)   bands (ev):

   -24.5133 -24.1055 -23.6188 -23.2428 -12.0710 -11.9224 -11.8956 -11.6829
    -9.7787  -8.8594  -7.9019  -7.3998  -6.4067  -6.3161  -6.2424  -6.2249

          k = 0.2882-0.7053 0.0000 ( 18147 PWs)   bands (ev):

   -24.2862 -23.9192 -23.8493 -23.4913 -12.1897 -12.1478 -11.6317 -11.4863
    -9.4108  -8.6175  -8.2706  -7.8549  -6.5105  -6.3957  -6.1178  -6.0558

          k = 0.2728-0.4190 0.0000 ( 18128 PWs)   bands (ev):

   -24.2834 -23.9007 -23.8556 -23.5065 -12.2397 -12.2327 -11.4867 -11.4255
    -9.5471  -8.7989  -8.0188  -7.7909  -6.5781  -6.4503  -6.0879  -6.0333

          k =-0.5150 0.2656 0.0000 ( 18184 PWs)   bands (ev):

   -24.2776 -23.9031 -23.8530 -23.5119 -12.2501 -12.2263 -11.4985 -11.4256
    -9.5691  -8.8357  -7.9878  -7.7193  -6.5894  -6.4453  -6.1125  -6.0269

          k =-0.5303 0.5518 0.0000 ( 18128 PWs)   bands (ev):

   -24.2808 -23.9199 -23.8486 -23.4961 -12.2055 -12.1636 -11.6230 -11.4822
    -9.4080  -8.6228  -8.2639  -7.8434  -6.5077  -6.3945  -6.1117  -6.0579

          k =-0.4843-0.3070 0.0000 ( 18166 PWs)   bands (ev):

   -24.2828 -23.9387 -23.8415 -23.4824 -12.1141 -11.9496 -11.8945 -11.5833
    -9.2247  -8.6881  -8.1720  -8.0361  -6.3650  -6.2990  -6.1918  -6.1735

     highest occupied level (ev):    -6.0258

!    total energy              =    -176.32085896 Ry
     estimated scf accuracy    <          2.6E-11 Ry

     convergence has been achieved in   5 iterations

     negative rho (up, down):  4.850E-04 0.000E+00

     Forces acting on atoms (cartesian axes, Ry/au):

     atom    1 type  1   force =    -0.00002714    0.00018578    0.00000832
     atom    2 type  1   force =     0.00007479    0.00008330   -0.00001428
     atom    3 type  1   force =    -0.00002897    0.00006528    0.00000690
     atom    4 type  1   force =    -0.00003932   -0.00003612    0.00004018
     atom    5 type  1   force =    -0.00004346   -0.00020746   -0.00004285
     atom    6 type  1   force =    -0.00003400    0.00001967    0.00009505
     atom    7 type  1   force =     0.00000802   -0.00001545   -0.00001003
     atom    8 type  1   force =    -0.00001073   -0.00005871   -0.00008455
     atom    9 type  2   force =    -0.00008098    0.00001536    0.00006413
     atom   10 type  2   force =     0.00007687    0.00006637   -0.00016492
     atom   11 type  2   force =     0.00001551   -0.00010397   -0.00003413
     atom   12 type  2   force =     0.00008941   -0.00001405    0.00013617

     Total force =     0.000462     Total SCF correction =     0.000005

     Entering Dynamics:    iteration =    67

     <vel(dt)|acc(dt)> =   0.61027475

ATOMIC_POSITIONS (angstrom)
H             4.4734271893        3.7383650274       11.2219802797
H             5.3202995211        4.3014543362       10.0177349971
H             3.2983994590        1.1610768934        8.0894276096
H             3.1459455032        2.8669473545        9.3224132826
H             3.9932890375        3.4300300776        8.1184195832
H             6.3325365512        3.9859665166        8.0941777034
H             3.0049033586        1.8135573938       11.2505585337
H             2.1337780204        3.1833185543       11.2453124079
O             5.2903457124        4.2758363378       11.0184710743
O             3.1762279310        2.8926809301        8.3216920102
O             5.4282302768        4.3738517331        8.2644021877
O             3.0380038901        2.7950216031       11.0750964085



     Writing config-only to output data dir ./output/f-BH.save/
     NEW-OLD atomic charge density approx. for the potential

     negative rho (up, down):  4.850E-04 0.000E+00

     total cpu time spent up to now is     4374.5 secs

     per-process dynamical memory:   210.2 Mb

     Self-consistent Calculation

     iteration #  1     ecut=    60.00 Ry     beta= 0.70
     Davidson diagonalization with overlap
     ethr =  1.00E-06,  avg # of iterations =  2.0

     Threshold (ethr) on eigenvalues was too large:
     Diagonalizing with lowered threshold

     Davidson diagonalization with overlap
     ethr =  8.03E-10,  avg # of iterations =  3.0

     negative rho (up, down):  4.850E-04 0.000E+00

     total cpu time spent up to now is     4385.9 secs

     total energy              =    -176.32085952 Ry
     estimated scf accuracy    <       0.00000034 Ry

     iteration #  2     ecut=    60.00 Ry     beta= 0.70
     Davidson diagonalization with overlap
     ethr =  1.07E-09,  avg # of iterations =  2.0

     negative rho (up, down):  4.850E-04 0.000E+00

     total cpu time spent up to now is     4391.5 secs

     total energy              =    -176.32085957 Ry
     estimated scf accuracy    <       0.00000005 Ry

     iteration #  3     ecut=    60.00 Ry     beta= 0.70
     Davidson diagonalization with overlap
     ethr =  1.55E-10,  avg # of iterations =  2.0

     negative rho (up, down):  4.850E-04 0.000E+00

     total cpu time spent up to now is     4397.2 secs

     total energy              =    -176.32085958 Ry
     estimated scf accuracy    <          8.3E-09 Ry

     iteration #  4     ecut=    60.00 Ry     beta= 0.70
     Davidson diagonalization with overlap
     ethr =  2.58E-11,  avg # of iterations =  2.0

     negative rho (up, down):  4.850E-04 0.000E+00

     total cpu time spent up to now is     4402.4 secs

     total energy              =    -176.32085958 Ry
     estimated scf accuracy    <          3.0E-10 Ry

     iteration #  5     ecut=    60.00 Ry     beta= 0.70
     Davidson diagonalization with overlap
     ethr =  9.24E-13,  avg # of iterations =  2.5

     negative rho (up, down):  4.850E-04 0.000E+00

     total cpu time spent up to now is     4408.2 secs

     End of self-consistent calculation

          k = 0.0000 0.0000 0.0000 ( 18047 PWs)   bands (ev):

   -24.6506 -24.2333 -23.4485 -23.0848 -12.0278 -11.8879 -11.8774 -11.8156
   -10.1121  -9.0447  -7.5409  -7.0169  -6.4298  -6.4114  -6.3239  -6.1830

          k =-0.0153 0.2863 0.0000 ( 18132 PWs)   bands (ev):

   -24.5148 -24.1016 -23.6189 -23.2489 -12.1523 -12.1057 -11.6460 -11.5796
    -9.8826  -8.9626  -7.7399  -7.3455  -6.5436  -6.4429  -6.2134  -6.1012

          k = 0.0307-0.5725 0.0000 ( 18166 PWs)   bands (ev):

   -24.2887 -23.9009 -23.8575 -23.5029 -12.2178 -12.2040 -11.5112 -11.4292
    -9.5759  -8.8363  -7.9992  -7.7430  -6.5975  -6.4442  -6.1221  -6.0271

          k = 0.2575-0.1328 0.0000 ( 18109 PWs)   bands (ev):

   -24.5123 -24.0993 -23.6208 -23.2509 -12.1703 -12.1261 -11.6276 -11.5796
    -9.8765  -8.9617  -7.7355  -7.3393  -6.5392  -6.4429  -6.2085  -6.1037

          k = 0.2421 0.1535 0.0000 ( 18132 PWs)   bands (ev):

   -24.5140 -24.1065 -23.6192 -23.2435 -12.0713 -11.9229 -11.8963 -11.6842
    -9.7784  -8.8605  -7.9021  -7.4008  -6.4070  -6.3171  -6.2435  -6.2253

          k = 0.2882-0.7053 0.0000 ( 18147 PWs)   bands (ev):

   -24.2868 -23.9203 -23.8497 -23.4921 -12.1902 -12.1484 -11.6321 -11.4873
    -9.4108  -8.6191  -8.2708  -7.8555  -6.5106  -6.3963  -6.1190  -6.0570

          k = 0.2728-0.4190 0.0000 ( 18128 PWs)   bands (ev):

   -24.2839 -23.9018 -23.8560 -23.5074 -12.2401 -12.2334 -11.4870 -11.4261
    -9.5471  -8.8004  -8.0191  -7.7919  -6.5783  -6.4505  -6.0890  -6.0345

          k =-0.5150 0.2656 0.0000 ( 18184 PWs)   bands (ev):

   -24.2783 -23.9040 -23.8535 -23.5127 -12.2507 -12.2271 -11.4988 -11.4262
    -9.5691  -8.8368  -7.9884  -7.7211  -6.5898  -6.4451  -6.1132  -6.0279

          k =-0.5303 0.5518 0.0000 ( 18128 PWs)   bands (ev):

   -24.2815 -23.9209 -23.8490 -23.4968 -12.2060 -12.1642 -11.6233 -11.4831
    -9.4078  -8.6237  -8.2645  -7.8449  -6.5081  -6.3946  -6.1125  -6.0590

          k =-0.4843-0.3070 0.0000 ( 18166 PWs)   bands (ev):

   -24.2836 -23.9397 -23.8418 -23.4831 -12.1144 -11.9499 -11.8953 -11.5847
    -9.2246  -8.6885  -8.1733  -8.0367  -6.3651  -6.2995  -6.1928  -6.1746

     highest occupied level (ev):    -6.0271

!    total energy              =    -176.32085958 Ry
     estimated scf accuracy    <          5.7E-11 Ry

     convergence has been achieved in   5 iterations

     negative rho (up, down):  4.850E-04 0.000E+00

     Forces acting on atoms (cartesian axes, Ry/au):

     atom    1 type  1   force =     0.00007897    0.00020678   -0.00004066
     atom    2 type  1   force =     0.00003541    0.00000221   -0.00004633
     atom    3 type  1   force =    -0.00006346    0.00013415   -0.00006400
     atom    4 type  1   force =    -0.00002509    0.00002451    0.00004991
     atom    5 type  1   force =    -0.00009977   -0.00019293    0.00001388
     atom    6 type  1   force =    -0.00006000   -0.00002524    0.00008044
     atom    7 type  1   force =     0.00001594   -0.00016386    0.00006746
     atom    8 type  1   force =     0.00009955   -0.00006864   -0.00006554
     atom    9 type  2   force =    -0.00015369   -0.00002791    0.00009946
     atom   10 type  2   force =     0.00014740    0.00003344   -0.00015030
     atom   11 type  2   force =     0.00005675   -0.00012577    0.00001487
     atom   12 type  2   force =    -0.00003202    0.00020326    0.00004080

     Total force =     0.000579     Total SCF correction =     0.000007

     Entering Dynamics:    iteration =    68

     <vel(dt)|acc(dt)> =   0.93934880

ATOMIC_POSITIONS (angstrom)
H             4.4730019313        3.7391997323       11.2222125254
H             5.3204398884        4.3021686028       10.0182728002
H             3.2980355205        1.1607743506        8.0895661494
H             3.1460826134        2.8665501949        9.3218105444
H             3.9935018120        3.4291893331        8.1177135422
H             6.3326611661        3.9861312103        8.0946097011
H             3.0053666477        1.8136235276       11.2505255627
H             2.1337181502        3.1829929464       11.2450165541
O             5.2902457444        4.2762449486       11.0190172275
O             3.1760551762        2.8924312051        8.3211516383
O             5.4281396580        4.3735866927        8.2646617563
O             3.0381381427        2.7952140138       11.0751280762



     Writing config-only to output data dir ./output/f-BH.save/
     NEW-OLD atomic charge density approx. for the potential

     negative rho (up, down):  4.849E-04 0.000E+00

     total cpu time spent up to now is     4421.0 secs

     per-process dynamical memory:   210.2 Mb

     Self-consistent Calculation

     iteration #  1     ecut=    60.00 Ry     beta= 0.70
     Davidson diagonalization with overlap
     ethr =  1.00E-06,  avg # of iterations =  2.0

     Threshold (ethr) on eigenvalues was too large:
     Diagonalizing with lowered threshold

     Davidson diagonalization with overlap
     ethr =  1.47E-09,  avg # of iterations =  3.0

     negative rho (up, down):  4.849E-04 0.000E+00

     total cpu time spent up to now is     4432.6 secs

     total energy              =    -176.32085993 Ry
     estimated scf accuracy    <       0.00000064 Ry

     iteration #  2     ecut=    60.00 Ry     beta= 0.70
     Davidson diagonalization with overlap
     ethr =  1.99E-09,  avg # of iterations =  2.0

     negative rho (up, down):  4.849E-04 0.000E+00

     total cpu time spent up to now is     4438.0 secs

     total energy              =    -176.32086001 Ry
     estimated scf accuracy    <       0.00000006 Ry

     iteration #  3     ecut=    60.00 Ry     beta= 0.70
     Davidson diagonalization with overlap
     ethr =  1.98E-10,  avg # of iterations =  2.0

     negative rho (up, down):  4.849E-04 0.000E+00

     total cpu time spent up to now is     4443.6 secs

     total energy              =    -176.32086002 Ry
     estimated scf accuracy    <       0.00000001 Ry

     iteration #  4     ecut=    60.00 Ry     beta= 0.70
     Davidson diagonalization with overlap
     ethr =  4.62E-11,  avg # of iterations =  2.0

     negative rho (up, down):  4.849E-04 0.000E+00

     total cpu time spent up to now is     4449.1 secs

     total energy              =    -176.32086002 Ry
     estimated scf accuracy    <          5.9E-10 Ry

     iteration #  5     ecut=    60.00 Ry     beta= 0.70
     Davidson diagonalization with overlap
     ethr =  1.84E-12,  avg # of iterations =  2.1

     negative rho (up, down):  4.849E-04 0.000E+00

     total cpu time spent up to now is     4454.6 secs

     total energy              =    -176.32086002 Ry
     estimated scf accuracy    <          1.0E-10 Ry

     iteration #  6     ecut=    60.00 Ry     beta= 0.70
     Davidson diagonalization with overlap
     ethr =  3.15E-13,  avg # of iterations =  2.1

     negative rho (up, down):  4.849E-04 0.000E+00

     total cpu time spent up to now is     4460.3 secs

     End of self-consistent calculation

          k = 0.0000 0.0000 0.0000 ( 18047 PWs)   bands (ev):

   -24.6512 -24.2342 -23.4488 -23.0855 -12.0278 -11.8879 -11.8786 -11.8165
   -10.1117  -9.0456  -7.5410  -7.0176  -6.4307  -6.4116  -6.3248  -6.1834

          k =-0.0153 0.2863 0.0000 ( 18132 PWs)   bands (ev):

   -24.5152 -24.1025 -23.6193 -23.2496 -12.1529 -12.1066 -11.6458 -11.5799
    -9.8823  -8.9637  -7.7401  -7.3461  -6.5436  -6.4438  -6.2146  -6.1022

          k = 0.0307-0.5725 0.0000 ( 18166 PWs)   bands (ev):

   -24.2890 -23.9021 -23.8577 -23.5038 -12.2185 -12.2048 -11.5106 -11.4292
    -9.5756  -8.8375  -7.9997  -7.7434  -6.5974  -6.4449  -6.1234  -6.0285

          k = 0.2575-0.1328 0.0000 ( 18109 PWs)   bands (ev):

   -24.5129 -24.1003 -23.6212 -23.2515 -12.1707 -12.1268 -11.6277 -11.5799
    -9.8766  -8.9627  -7.7360  -7.3404  -6.5397  -6.4428  -6.2090  -6.1044

          k = 0.2421 0.1535 0.0000 ( 18132 PWs)   bands (ev):

   -24.5145 -24.1074 -23.6196 -23.2442 -12.0713 -11.9229 -11.8968 -11.6853
    -9.7782  -8.8614  -7.9024  -7.4016  -6.4072  -6.3180  -6.2444  -6.2257

          k = 0.2882-0.7053 0.0000 ( 18147 PWs)   bands (ev):

   -24.2873 -23.9214 -23.8499 -23.4930 -12.1907 -12.1490 -11.6317 -11.4878
    -9.4105  -8.6203  -8.2712  -7.8561  -6.5106  -6.3968  -6.1201  -6.0580

          k = 0.2728-0.4190 0.0000 ( 18128 PWs)   bands (ev):

   -24.2844 -23.9029 -23.8563 -23.5081 -12.2407 -12.2342 -11.4865 -11.4261
    -9.5472  -8.8017  -8.0198  -7.7928  -6.5784  -6.4507  -6.0899  -6.0355

          k =-0.5150 0.2656 0.0000 ( 18184 PWs)   bands (ev):

   -24.2790 -23.9049 -23.8540 -23.5132 -12.2511 -12.2278 -11.4985 -11.4263
    -9.5695  -8.8381  -7.9892  -7.7223  -6.5900  -6.4449  -6.1136  -6.0287

          k =-0.5303 0.5518 0.0000 ( 18128 PWs)   bands (ev):

   -24.2822 -23.9220 -23.8492 -23.4974 -12.2064 -12.1647 -11.6231 -11.4837
    -9.4080  -8.6248  -8.2650  -7.8459  -6.5084  -6.3947  -6.1131  -6.0598

          k =-0.4843-0.3070 0.0000 ( 18166 PWs)   bands (ev):

   -24.2843 -23.9407 -23.8420 -23.4838 -12.1145 -11.9499 -11.8956 -11.5859
    -9.2243  -8.6893  -8.1744  -8.0371  -6.3653  -6.2999  -6.1937  -6.1754

     highest occupied level (ev):    -6.0285

!    total energy              =    -176.32086002 Ry
     estimated scf accuracy    <          4.1E-12 Ry

     convergence has been achieved in   6 iterations

     negative rho (up, down):  4.849E-04 0.000E+00

     Forces acting on atoms (cartesian axes, Ry/au):

     atom    1 type  1   force =     0.00005587    0.00013893   -0.00003694
     atom    2 type  1   force =    -0.00001221   -0.00006962    0.00000150
     atom    3 type  1   force =    -0.00007982    0.00016980   -0.00010317
     atom    4 type  1   force =    -0.00002005    0.00007048    0.00013461
     atom    5 type  1   force =    -0.00016297   -0.00016586    0.00006762
     atom    6 type  1   force =    -0.00006977   -0.00006874    0.00004439
     atom    7 type  1   force =     0.00000765   -0.00005201    0.00008410
     atom    8 type  1   force =     0.00004223   -0.00000407    0.00000258
     atom    9 type  2   force =    -0.00007258    0.00004714   -0.00001298
     atom   10 type  2   force =     0.00021576    0.00001576   -0.00020000
     atom   11 type  2   force =     0.00008425   -0.00013291    0.00005231
     atom   12 type  2   force =     0.00001164    0.00005110   -0.00003402

     Total force =     0.000553     Total SCF correction =     0.000003

     Entering Dynamics:    iteration =    69

     <vel(dt)|acc(dt)> =   0.88453111

ATOMIC_POSITIONS (angstrom)
H             4.4725720049        3.7399013611       11.2226486458
H             5.3205081031        4.3025838094       10.0191069486
H             3.2975444829        1.1604645443        8.0894194981
H             3.1462129012        2.8662922494        9.3210827637
H             3.9936655896        3.4284153235        8.1169742018
H             6.3325847502        3.9860097868        8.0950991368
H             3.0059284242        1.8140250846       11.2505803730
H             2.1337498407        3.1829661237       11.2447667145
O             5.2900760262        4.2766946424       11.0198115934
O             3.1761652889        2.8919930258        8.3202974310
O             5.4281045777        4.3732924014        8.2653799333
O             3.0382744611        2.7954684057       11.0745188379



     Writing config-only to output data dir ./output/f-BH.save/
     NEW-OLD atomic charge density approx. for the potential

     negative rho (up, down):  4.848E-04 0.000E+00

     total cpu time spent up to now is     4472.9 secs

     per-process dynamical memory:   210.2 Mb

     Self-consistent Calculation

     iteration #  1     ecut=    60.00 Ry     beta= 0.70
     Davidson diagonalization with overlap
     ethr =  1.00E-06,  avg # of iterations =  2.0

     Threshold (ethr) on eigenvalues was too large:
     Diagonalizing with lowered threshold

     Davidson diagonalization with overlap
     ethr =  2.80E-09,  avg # of iterations =  3.1

     negative rho (up, down):  4.848E-04 0.000E+00

     total cpu time spent up to now is     4484.7 secs

     total energy              =    -176.32086016 Ry
     estimated scf accuracy    <       0.00000128 Ry

     iteration #  2     ecut=    60.00 Ry     beta= 0.70
     Davidson diagonalization with overlap
     ethr =  4.01E-09,  avg # of iterations =  2.0

     negative rho (up, down):  4.849E-04 0.000E+00

     total cpu time spent up to now is     4489.8 secs

     total energy              =    -176.32086029 Ry
     estimated scf accuracy    <       0.00000006 Ry

     iteration #  3     ecut=    60.00 Ry     beta= 0.70
     Davidson diagonalization with overlap
     ethr =  1.99E-10,  avg # of iterations =  2.3

     negative rho (up, down):  4.849E-04 0.000E+00

     total cpu time spent up to now is     4495.3 secs

     total energy              =    -176.32086030 Ry
     estimated scf accuracy    <       0.00000001 Ry

     iteration #  4     ecut=    60.00 Ry     beta= 0.70
     Davidson diagonalization with overlap
     ethr =  3.29E-11,  avg # of iterations =  2.7

     negative rho (up, down):  4.849E-04 0.000E+00

     total cpu time spent up to now is     4501.2 secs

     total energy              =    -176.32086030 Ry
     estimated scf accuracy    <          2.0E-09 Ry

     iteration #  5     ecut=    60.00 Ry     beta= 0.70
     Davidson diagonalization with overlap
     ethr =  6.15E-12,  avg # of iterations =  2.0

     negative rho (up, down):  4.849E-04 0.000E+00

     total cpu time spent up to now is     4506.3 secs

     total energy              =    -176.32086030 Ry
     estimated scf accuracy    <          1.3E-10 Ry

     iteration #  6     ecut=    60.00 Ry     beta= 0.70
     Davidson diagonalization with overlap
     ethr =  3.96E-13,  avg # of iterations =  3.2

     negative rho (up, down):  4.849E-04 0.000E+00

     total cpu time spent up to now is     4512.5 secs

     End of self-consistent calculation

          k = 0.0000 0.0000 0.0000 ( 18047 PWs)   bands (ev):

   -24.6509 -24.2342 -23.4484 -23.0852 -12.0274 -11.8873 -11.8782 -11.8161
   -10.1113  -9.0451  -7.5411  -7.0169  -6.4304  -6.4113  -6.3244  -6.1835

          k =-0.0153 0.2863 0.0000 ( 18132 PWs)   bands (ev):

   -24.5149 -24.1025 -23.6189 -23.2494 -12.1528 -12.1067 -11.6444 -11.5787
    -9.8818  -8.9632  -7.7404  -7.3456  -6.5430  -6.4436  -6.2144  -6.1024

          k = 0.0307-0.5725 0.0000 ( 18166 PWs)   bands (ev):

   -24.2885 -23.9021 -23.8573 -23.5038 -12.2186 -12.2052 -11.5089 -11.4276
    -9.5749  -8.8367  -8.0006  -7.7432  -6.5971  -6.4448  -6.1233  -6.0286

          k = 0.2575-0.1328 0.0000 ( 18109 PWs)   bands (ev):

   -24.5126 -24.1003 -23.6207 -23.2512 -12.1706 -12.1268 -11.6263 -11.5789
    -9.8766  -8.9625  -7.7363  -7.3400  -6.5394  -6.4422  -6.2086  -6.1043

          k = 0.2421 0.1535 0.0000 ( 18132 PWs)   bands (ev):

   -24.5142 -24.1074 -23.6191 -23.2440 -12.0710 -11.9222 -11.8960 -11.6849
    -9.7780  -8.8610  -7.9025  -7.4011  -6.4069  -6.3176  -6.2438  -6.2259

          k = 0.2882-0.7053 0.0000 ( 18147 PWs)   bands (ev):

   -24.2868 -23.9213 -23.8495 -23.4929 -12.1906 -12.1489 -11.6300 -11.4867
    -9.4101  -8.6200  -8.2717  -7.8558  -6.5104  -6.3967  -6.1198  -6.0579

          k = 0.2728-0.4190 0.0000 ( 18128 PWs)   bands (ev):

   -24.2841 -23.9028 -23.8560 -23.5079 -12.2408 -12.2344 -11.4847 -11.4246
    -9.5471  -8.8014  -8.0206  -7.7922  -6.5781  -6.4505  -6.0896  -6.0353

          k =-0.5150 0.2656 0.0000 ( 18184 PWs)   bands (ev):

   -24.2788 -23.9047 -23.8538 -23.5127 -12.2511 -12.2280 -11.4966 -11.4248
    -9.5700  -8.8383  -7.9898  -7.7216  -6.5897  -6.4446  -6.1130  -6.0283

          k =-0.5303 0.5518 0.0000 ( 18128 PWs)   bands (ev):

   -24.2819 -23.9218 -23.8489 -23.4972 -12.2063 -12.1644 -11.6214 -11.4827
    -9.4082  -8.6251  -8.2652  -7.8454  -6.5082  -6.3945  -6.1126  -6.0593

          k =-0.4843-0.3070 0.0000 ( 18166 PWs)   bands (ev):

   -24.2839 -23.9405 -23.8416 -23.4838 -12.1141 -11.9495 -11.8940 -11.5854
    -9.2239  -8.6903  -8.1740  -8.0366  -6.3652  -6.2998  -6.1934  -6.1748

     highest occupied level (ev):    -6.0283

!    total energy              =    -176.32086030 Ry
     estimated scf accuracy    <          1.1E-11 Ry

     convergence has been achieved in   6 iterations

     negative rho (up, down):  4.849E-04 0.000E+00

     Forces acting on atoms (cartesian axes, Ry/au):

     atom    1 type  1   force =     0.00007107    0.00011005   -0.00002652
     atom    2 type  1   force =    -0.00002672   -0.00007153   -0.00005917
     atom    3 type  1   force =    -0.00003431    0.00000590   -0.00004883
     atom    4 type  1   force =    -0.00001412    0.00006284   -0.00003367
     atom    5 type  1   force =     0.00001543   -0.00001906    0.00002814
     atom    6 type  1   force =    -0.00000258   -0.00008046   -0.00001448
     atom    7 type  1   force =    -0.00002046   -0.00014122    0.00008539
     atom    8 type  1   force =     0.00012037   -0.00001470    0.00000645
     atom    9 type  2   force =    -0.00002148    0.00004058   -0.00000469
     atom   10 type  2   force =    -0.00000131   -0.00011512    0.00007371
     atom   11 type  2   force =     0.00000954    0.00004064    0.00002823
     atom   12 type  2   force =    -0.00009542    0.00018208   -0.00003456

     Total force =     0.000392     Total SCF correction =     0.000005

     Entering Dynamics:    iteration =    70

     <vel(dt)|acc(dt)> =   0.34106822

ATOMIC_POSITIONS (angstrom)
H             4.4727172257        3.7399397451       11.2227918849
H             5.3204498016        4.3022243921       10.0191967934
H             3.2974735368        1.1604518205        8.0891767172
H             3.1461321155        2.8664933427        9.3209335062
H             3.9936611726        3.4284742490        8.1170070287
H             6.3323982285        3.9856356122        8.0951055777
H             3.0058808029        1.8140991653       11.2507268159
H             2.1340057999        3.1832328339       11.2447737380
O             5.2900159447        4.2767509661       11.0200029444
O             3.1763300870        2.8917174172        8.3201913458
O             5.4281537276        4.3733344957        8.2657017799
O             3.0381680078        2.7957527182       11.0740779458



     Writing config-only to output data dir ./output/f-BH.save/
     NEW-OLD atomic charge density approx. for the potential

     negative rho (up, down):  4.848E-04 0.000E+00

     total cpu time spent up to now is     4525.2 secs

     per-process dynamical memory:   210.2 Mb

     Self-consistent Calculation

     iteration #  1     ecut=    60.00 Ry     beta= 0.70
     Davidson diagonalization with overlap
     ethr =  1.00E-06,  avg # of iterations =  2.0

     Threshold (ethr) on eigenvalues was too large:
     Diagonalizing with lowered threshold

     Davidson diagonalization with overlap
     ethr =  6.40E-10,  avg # of iterations =  3.0

     negative rho (up, down):  4.849E-04 0.000E+00

     total cpu time spent up to now is     4536.5 secs

     total energy              =    -176.32086026 Ry
     estimated scf accuracy    <       0.00000031 Ry

     iteration #  2     ecut=    60.00 Ry     beta= 0.70
     Davidson diagonalization with overlap
     ethr =  9.60E-10,  avg # of iterations =  2.0

     negative rho (up, down):  4.849E-04 0.000E+00

     total cpu time spent up to now is     4541.9 secs

     total energy              =    -176.32086031 Ry
     estimated scf accuracy    <       0.00000002 Ry

     iteration #  3     ecut=    60.00 Ry     beta= 0.70
     Davidson diagonalization with overlap
     ethr =  4.80E-11,  avg # of iterations =  2.0

     negative rho (up, down):  4.849E-04 0.000E+00

     total cpu time spent up to now is     4547.4 secs

     total energy              =    -176.32086031 Ry
     estimated scf accuracy    <          2.6E-09 Ry

     iteration #  4     ecut=    60.00 Ry     beta= 0.70
     Davidson diagonalization with overlap
     ethr =  8.05E-12,  avg # of iterations =  2.4

     negative rho (up, down):  4.849E-04 0.000E+00

     total cpu time spent up to now is     4552.9 secs

     total energy              =    -176.32086031 Ry
     estimated scf accuracy    <          3.5E-10 Ry

     iteration #  5     ecut=    60.00 Ry     beta= 0.70
     Davidson diagonalization with overlap
     ethr =  1.08E-12,  avg # of iterations =  2.1

     negative rho (up, down):  4.849E-04 0.000E+00

     total cpu time spent up to now is     4558.2 secs

     End of self-consistent calculation

          k = 0.0000 0.0000 0.0000 ( 18047 PWs)   bands (ev):

   -24.6502 -24.2335 -23.4478 -23.0844 -12.0269 -11.8865 -11.8770 -11.8152
   -10.1113  -9.0442  -7.5410  -7.0159  -6.4295  -6.4106  -6.3234  -6.1830

          k =-0.0153 0.2863 0.0000 ( 18132 PWs)   bands (ev):

   -24.5143 -24.1018 -23.6183 -23.2486 -12.1525 -12.1063 -11.6433 -11.5776
    -9.8814  -8.9618  -7.7407  -7.3449  -6.5427  -6.4428  -6.2132  -6.1016

          k = 0.0307-0.5725 0.0000 ( 18166 PWs)   bands (ev):

   -24.2879 -23.9015 -23.8565 -23.5030 -12.2183 -12.2048 -11.5078 -11.4265
    -9.5740  -8.8346  -8.0014  -7.7432  -6.5968  -6.4441  -6.1221  -6.0276

          k = 0.2575-0.1328 0.0000 ( 18109 PWs)   bands (ev):

   -24.5120 -24.0996 -23.6201 -23.2505 -12.1700 -12.1260 -11.6255 -11.5778
    -9.8767  -8.9617  -7.7360  -7.3387  -6.5387  -6.4420  -6.2078  -6.1034

          k = 0.2421 0.1535 0.0000 ( 18132 PWs)   bands (ev):

   -24.5136 -24.1067 -23.6185 -23.2433 -12.0705 -11.9213 -11.8951 -11.6838
    -9.7780  -8.8602  -7.9023  -7.4000  -6.4063  -6.3168  -6.2429  -6.2254

          k = 0.2882-0.7053 0.0000 ( 18147 PWs)   bands (ev):

   -24.2862 -23.9208 -23.8487 -23.4922 -12.1903 -12.1483 -11.6290 -11.4856
    -9.4095  -8.6185  -8.2720  -7.8555  -6.5101  -6.3961  -6.1187  -6.0569

          k = 0.2728-0.4190 0.0000 ( 18128 PWs)   bands (ev):

   -24.2835 -23.9023 -23.8552 -23.5071 -12.2402 -12.2339 -11.4837 -11.4235
    -9.5468  -8.8001  -8.0208  -7.7913  -6.5777  -6.4502  -6.0886  -6.0342

          k =-0.5150 0.2656 0.0000 ( 18184 PWs)   bands (ev):

   -24.2782 -23.9041 -23.8530 -23.5120 -12.2503 -12.2273 -11.4957 -11.4237
    -9.5702  -8.8377  -7.9895  -7.7199  -6.5892  -6.4447  -6.1121  -6.0272

          k =-0.5303 0.5518 0.0000 ( 18128 PWs)   bands (ev):

   -24.2813 -23.9212 -23.8481 -23.4965 -12.2057 -12.1636 -11.6205 -11.4817
    -9.4083  -8.6246  -8.2647  -7.8439  -6.5078  -6.3943  -6.1117  -6.0582

          k =-0.4843-0.3070 0.0000 ( 18166 PWs)   bands (ev):

   -24.2832 -23.9400 -23.8408 -23.4831 -12.1137 -11.9490 -11.8927 -11.5842
    -9.2237  -8.6907  -8.1725  -8.0359  -6.3648  -6.2991  -6.1926  -6.1739

     highest occupied level (ev):    -6.0272

!    total energy              =    -176.32086031 Ry
     estimated scf accuracy    <          7.2E-12 Ry

     convergence has been achieved in   5 iterations

     negative rho (up, down):  4.849E-04 0.000E+00

     Forces acting on atoms (cartesian axes, Ry/au):

     atom    1 type  1   force =    -0.00013157    0.00000544    0.00005334
     atom    2 type  1   force =     0.00000150    0.00000574    0.00005168
     atom    3 type  1   force =     0.00003099   -0.00004294    0.00001309
     atom    4 type  1   force =    -0.00002643   -0.00000361    0.00005965
     atom    5 type  1   force =     0.00001357   -0.00004510   -0.00000158
     atom    6 type  1   force =    -0.00000088   -0.00000143   -0.00001917
     atom    7 type  1   force =    -0.00001081    0.00028693   -0.00005303
     atom    8 type  1   force =    -0.00020567    0.00011226    0.00006111
     atom    9 type  2   force =     0.00014511    0.00017316   -0.00018523
     atom   10 type  2   force =    -0.00000923   -0.00003283   -0.00002230
     atom   11 type  2   force =    -0.00003923   -0.00001570   -0.00000671
     atom   12 type  2   force =     0.00023267   -0.00044192    0.00004916

     Total force =     0.000719     Total SCF correction =     0.000009

     Entering Dynamics:    iteration =    71

     <vel(dt)|acc(dt)> =  -0.91637010

ATOMIC_POSITIONS (angstrom)
H             4.4727117268        3.7399494233       11.2227689501
H             5.3204587397        4.3022774376       10.0191554597
H             3.2974933179        1.1604566339        8.0892250695
H             3.1461326932        2.8664682227        9.3209789603
H             3.9936482152        3.4284609776        8.1170118107
H             6.3324294971        3.9856817456        8.0950874415
H             3.0058643023        1.8140898085       11.2507075471
H             2.1339606668        3.1832005347       11.2447845461
O             5.2900430998        4.2767645353       11.0199365528
O             3.1762984219        2.8917523551        8.3202255293
O             5.4281500434        4.3733191076        8.2656300946
O             3.0381957268        2.7956859762       11.0741741160



     Writing config-only to output data dir ./output/f-BH.save/
     NEW-OLD atomic charge density approx. for the potential

     negative rho (up, down):  4.849E-04 0.000E+00

     total cpu time spent up to now is     4570.9 secs

     per-process dynamical memory:   210.2 Mb

     Self-consistent Calculation

     iteration #  1     ecut=    60.00 Ry     beta= 0.70
     Davidson diagonalization with overlap
     ethr =  1.00E-06,  avg # of iterations =  2.0

     Threshold (ethr) on eigenvalues was too large:
     Diagonalizing with lowered threshold

     Davidson diagonalization with overlap
     ethr =  2.24E-11,  avg # of iterations =  4.0

     negative rho (up, down):  4.849E-04 0.000E+00

     total cpu time spent up to now is     4582.8 secs

     total energy              =    -176.32086041 Ry
     estimated scf accuracy    <       0.00000002 Ry

     iteration #  2     ecut=    60.00 Ry     beta= 0.70
     Davidson diagonalization with overlap
     ethr =  5.10E-11,  avg # of iterations =  2.0

     negative rho (up, down):  4.849E-04 0.000E+00

     total cpu time spent up to now is     4588.2 secs

     total energy              =    -176.32086041 Ry
     estimated scf accuracy    <          6.7E-10 Ry

     iteration #  3     ecut=    60.00 Ry     beta= 0.70
     Davidson diagonalization with overlap
     ethr =  2.08E-12,  avg # of iterations =  2.3

     negative rho (up, down):  4.849E-04 0.000E+00

     total cpu time spent up to now is     4593.9 secs

     total energy              =    -176.32086041 Ry
     estimated scf accuracy    <          1.5E-10 Ry

     iteration #  4     ecut=    60.00 Ry     beta= 0.70
     Davidson diagonalization with overlap
     ethr =  4.70E-13,  avg # of iterations =  2.3

     negative rho (up, down):  4.849E-04 0.000E+00

     total cpu time spent up to now is     4599.4 secs

     End of self-consistent calculation

          k = 0.0000 0.0000 0.0000 ( 18047 PWs)   bands (ev):

   -24.6503 -24.2336 -23.4479 -23.0845 -12.0270 -11.8867 -11.8772 -11.8153
   -10.1112  -9.0443  -7.5410  -7.0161  -6.4297  -6.4107  -6.3236  -6.1831

          k =-0.0153 0.2863 0.0000 ( 18132 PWs)   bands (ev):

   -24.5143 -24.1019 -23.6184 -23.2488 -12.1525 -12.1063 -11.6435 -11.5778
    -9.8815  -8.9621  -7.7406  -7.3450  -6.5427  -6.4429  -6.2134  -6.1017

          k = 0.0307-0.5725 0.0000 ( 18166 PWs)   bands (ev):

   -24.2880 -23.9017 -23.8566 -23.5031 -12.2183 -12.2048 -11.5080 -11.4267
    -9.5741  -8.8350  -8.0013  -7.7432  -6.5969  -6.4442  -6.1223  -6.0277

          k = 0.2575-0.1328 0.0000 ( 18109 PWs)   bands (ev):

   -24.5121 -24.0997 -23.6202 -23.2506 -12.1701 -12.1261 -11.6256 -11.5780
    -9.8766  -8.9618  -7.7361  -7.3389  -6.5388  -6.4420  -6.2079  -6.1035

          k = 0.2421 0.1535 0.0000 ( 18132 PWs)   bands (ev):

   -24.5137 -24.1068 -23.6186 -23.2434 -12.0706 -11.9215 -11.8952 -11.6840
    -9.7780  -8.8604  -7.9023  -7.4002  -6.4064  -6.3169  -6.2430  -6.2255

          k = 0.2882-0.7053 0.0000 ( 18147 PWs)   bands (ev):

   -24.2863 -23.9209 -23.8488 -23.4923 -12.1903 -12.1484 -11.6292 -11.4858
    -9.4096  -8.6187  -8.2719  -7.8555  -6.5102  -6.3962  -6.1189  -6.0571

          k = 0.2728-0.4190 0.0000 ( 18128 PWs)   bands (ev):

   -24.2836 -23.9024 -23.8552 -23.5072 -12.2402 -12.2340 -11.4839 -11.4237
    -9.5468  -8.8003  -8.0207  -7.7915  -6.5778  -6.4502  -6.0888  -6.0344

          k =-0.5150 0.2656 0.0000 ( 18184 PWs)   bands (ev):

   -24.2783 -23.9043 -23.8531 -23.5121 -12.2505 -12.2274 -11.4959 -11.4240
    -9.5701  -8.8378  -7.9895  -7.7202  -6.5892  -6.4447  -6.1123  -6.0273

          k =-0.5303 0.5518 0.0000 ( 18128 PWs)   bands (ev):

   -24.2814 -23.9214 -23.8481 -23.4966 -12.2058 -12.1638 -11.6207 -11.4819
    -9.4083  -8.6247  -8.2648  -7.8442  -6.5078  -6.3944  -6.1119  -6.0584

          k =-0.4843-0.3070 0.0000 ( 18166 PWs)   bands (ev):

   -24.2834 -23.9401 -23.8409 -23.4832 -12.1137 -11.9491 -11.8930 -11.5844
    -9.2237  -8.6906  -8.1727  -8.0360  -6.3649  -6.2992  -6.1928  -6.1741

     highest occupied level (ev):    -6.0273

!    total energy              =    -176.32086041 Ry
     estimated scf accuracy    <          1.8E-11 Ry

     convergence has been achieved in   4 iterations

     negative rho (up, down):  4.849E-04 0.000E+00

     Forces acting on atoms (cartesian axes, Ry/au):

     atom    1 type  1   force =    -0.00008383    0.00002933    0.00003525
     atom    2 type  1   force =    -0.00000150   -0.00000555    0.00001879
     atom    3 type  1   force =     0.00002110   -0.00004389    0.00000306
     atom    4 type  1   force =    -0.00002253    0.00000547    0.00003892
     atom    5 type  1   force =     0.00001752   -0.00004005    0.00000255
     atom    6 type  1   force =    -0.00000026   -0.00001317   -0.00001823
     atom    7 type  1   force =    -0.00000904    0.00018127   -0.00002480
     atom    8 type  1   force =    -0.00012302    0.00008018    0.00004494
     atom    9 type  2   force =     0.00010077    0.00013418   -0.00013116
     atom   10 type  2   force =    -0.00001085   -0.00004721   -0.00000141
     atom   11 type  2   force =    -0.00003530    0.00000191   -0.00000340
     atom   12 type  2   force =     0.00014694   -0.00028247    0.00003550

     Total force =     0.000474     Total SCF correction =     0.000006

     Entering Dynamics:    iteration =    72

     <vel(dt)|acc(dt)> =   0.74210765

ATOMIC_POSITIONS (angstrom)
H             4.4727372300        3.7400714058       11.2227923218
H             5.3204790652        4.3023736264       10.0191038085
H             3.2975112079        1.1604141487        8.0893156457
H             3.1461063961        2.8664243673        9.3210104839
H             3.9936093851        3.4283666693        8.1169678290
H             6.3324650699        3.9856774204        8.0950558866
H             3.0058169820        1.8141046496       11.2506931099
H             2.1339232203        3.1831987977       11.2447960378
O             5.2901122951        4.2768754840       11.0198566396
O             3.1762353686        2.8917291143        8.3202344109
O             5.4281441001        4.3732507177        8.2655438086
O             3.0382461304        2.7956203568       11.0743160957



     Writing config-only to output data dir ./output/f-BH.save/
     NEW-OLD atomic charge density approx. for the potential

     negative rho (up, down):  4.848E-04 0.000E+00

     total cpu time spent up to now is     4612.0 secs

     per-process dynamical memory:   210.2 Mb

     Self-consistent Calculation

     iteration #  1     ecut=    60.00 Ry     beta= 0.70
     Davidson diagonalization with overlap
     ethr =  1.00E-06,  avg # of iterations =  2.0

     Threshold (ethr) on eigenvalues was too large:
     Diagonalizing with lowered threshold

     Davidson diagonalization with overlap
     ethr =  5.83E-11,  avg # of iterations =  4.0

     negative rho (up, down):  4.848E-04 0.000E+00

     total cpu time spent up to now is     4623.9 secs

     total energy              =    -176.32086052 Ry
     estimated scf accuracy    <       0.00000004 Ry

     iteration #  2     ecut=    60.00 Ry     beta= 0.70
     Davidson diagonalization with overlap
     ethr =  1.32E-10,  avg # of iterations =  2.0

     negative rho (up, down):  4.848E-04 0.000E+00

     total cpu time spent up to now is     4629.3 secs

     total energy              =    -176.32086052 Ry
     estimated scf accuracy    <          3.8E-09 Ry

     iteration #  3     ecut=    60.00 Ry     beta= 0.70
     Davidson diagonalization with overlap
     ethr =  1.20E-11,  avg # of iterations =  2.4

     negative rho (up, down):  4.848E-04 0.000E+00

     total cpu time spent up to now is     4635.1 secs

     total energy              =    -176.32086052 Ry
     estimated scf accuracy    <          9.7E-10 Ry

     iteration #  4     ecut=    60.00 Ry     beta= 0.70
     Davidson diagonalization with overlap
     ethr =  3.03E-12,  avg # of iterations =  2.3

     negative rho (up, down):  4.848E-04 0.000E+00

     total cpu time spent up to now is     4640.3 secs

     End of self-consistent calculation

          k = 0.0000 0.0000 0.0000 ( 18047 PWs)   bands (ev):

   -24.6504 -24.2337 -23.4480 -23.0847 -12.0271 -11.8868 -11.8774 -11.8154
   -10.1111  -9.0446  -7.5410  -7.0163  -6.4299  -6.4107  -6.3238  -6.1831

          k =-0.0153 0.2863 0.0000 ( 18132 PWs)   bands (ev):

   -24.5144 -24.1020 -23.6185 -23.2489 -12.1524 -12.1063 -11.6438 -11.5781
    -9.8814  -8.9624  -7.7406  -7.3452  -6.5428  -6.4431  -6.2136  -6.1019

          k = 0.0307-0.5725 0.0000 ( 18166 PWs)   bands (ev):

   -24.2880 -23.9019 -23.8566 -23.5033 -12.2182 -12.2047 -11.5083 -11.4271
    -9.5741  -8.8353  -8.0011  -7.7433  -6.5969  -6.4443  -6.1225  -6.0279

          k = 0.2575-0.1328 0.0000 ( 18109 PWs)   bands (ev):

   -24.5122 -24.0999 -23.6203 -23.2507 -12.1701 -12.1262 -11.6257 -11.5782
    -9.8764  -8.9621  -7.7361  -7.3392  -6.5389  -6.4421  -6.2081  -6.1036

          k = 0.2421 0.1535 0.0000 ( 18132 PWs)   bands (ev):

   -24.5138 -24.1069 -23.6187 -23.2435 -12.0706 -11.9217 -11.8953 -11.6842
    -9.7778  -8.8606  -7.9023  -7.4004  -6.4064  -6.3172  -6.2433  -6.2255

          k = 0.2882-0.7053 0.0000 ( 18147 PWs)   bands (ev):

   -24.2864 -23.9211 -23.8488 -23.4924 -12.1902 -12.1484 -11.6295 -11.4861
    -9.4095  -8.6190  -8.2719  -7.8557  -6.5101  -6.3963  -6.1192  -6.0573

          k = 0.2728-0.4190 0.0000 ( 18128 PWs)   bands (ev):

   -24.2836 -23.9026 -23.8552 -23.5074 -12.2402 -12.2340 -11.4841 -11.4240
    -9.5467  -8.8006  -8.0207  -7.7918  -6.5778  -6.4502  -6.0890  -6.0346

          k =-0.5150 0.2656 0.0000 ( 18184 PWs)   bands (ev):

   -24.2784 -23.9044 -23.8531 -23.5122 -12.2506 -12.2275 -11.4960 -11.4242
    -9.5699  -8.8380  -7.9896  -7.7206  -6.5893  -6.4446  -6.1124  -6.0275

          k =-0.5303 0.5518 0.0000 ( 18128 PWs)   bands (ev):

   -24.2815 -23.9216 -23.8482 -23.4966 -12.2059 -12.1639 -11.6208 -11.4821
    -9.4081  -8.6248  -8.2649  -7.8445  -6.5078  -6.3944  -6.1120  -6.0586

          k =-0.4843-0.3070 0.0000 ( 18166 PWs)   bands (ev):

   -24.2835 -23.9403 -23.8409 -23.4832 -12.1138 -11.9491 -11.8932 -11.5847
    -9.2237  -8.6906  -8.1729  -8.0361  -6.3648  -6.2992  -6.1930  -6.1743

     highest occupied level (ev):    -6.0275

!    total energy              =    -176.32086052 Ry
     estimated scf accuracy    <          3.1E-11 Ry

     convergence has been achieved in   4 iterations

     negative rho (up, down):  4.848E-04 0.000E+00

     Forces acting on atoms (cartesian axes, Ry/au):

     atom    1 type  1   force =    -0.00001537    0.00005914    0.00000751
     atom    2 type  1   force =    -0.00000464   -0.00001893   -0.00002430
     atom    3 type  1   force =     0.00001129   -0.00003951   -0.00001478
     atom    4 type  1   force =    -0.00001429    0.00001508    0.00000503
     atom    5 type  1   force =     0.00002430   -0.00003103    0.00000962
     atom    6 type  1   force =    -0.00000649   -0.00002134   -0.00001643
     atom    7 type  1   force =     0.00000025    0.00003265    0.00001170
     atom    8 type  1   force =    -0.00001405    0.00004044    0.00002553
     atom    9 type  2   force =     0.00002901    0.00007314   -0.00006211
     atom   10 type  2   force =    -0.00001319   -0.00006308    0.00004226
     atom   11 type  2   force =    -0.00002972    0.00000923    0.00000539
     atom   12 type  2   force =     0.00003291   -0.00005579    0.00001057

     Total force =     0.000186     Total SCF correction =     0.000010

     Entering Dynamics:    iteration =    73

     <vel(dt)|acc(dt)> =   0.91862784

ATOMIC_POSITIONS (angstrom)
H             4.4727978189        3.7403074478       11.2228112028
H             5.3204956643        4.3024475172       10.0189758790
H             3.2975194466        1.1603677927        8.0893879817
H             3.1460522805        2.8664111239        9.3210730685
H             3.9935615361        3.4282152766        8.1169414204
H             6.3324883804        3.9856256058        8.0950014490
H             3.0057459839        1.8140947377       11.2507228385
H             2.1339151556        3.1832115982       11.2448363889
O             5.2901913564        4.2770717025       11.0197094132
O             3.1761754404        2.8916254167        8.3202914819
O             5.4281447906        4.3731662836        8.2654456284
O             3.0382985972        2.7955622553       11.0744893254



     Writing config-only to output data dir ./output/f-BH.save/
     NEW-OLD atomic charge density approx. for the potential

     negative rho (up, down):  4.848E-04 0.000E+00

     total cpu time spent up to now is     4653.2 secs

     per-process dynamical memory:   210.2 Mb

     Self-consistent Calculation

     iteration #  1     ecut=    60.00 Ry     beta= 0.70
     Davidson diagonalization with overlap
     ethr =  1.00E-06,  avg # of iterations =  2.0

     Threshold (ethr) on eigenvalues was too large:
     Diagonalizing with lowered threshold

     Davidson diagonalization with overlap
     ethr =  1.12E-10,  avg # of iterations =  4.0

     negative rho (up, down):  4.848E-04 0.000E+00

     total cpu time spent up to now is     4665.6 secs

     total energy              =    -176.32086060 Ry
     estimated scf accuracy    <       0.00000008 Ry

     iteration #  2     ecut=    60.00 Ry     beta= 0.70
     Davidson diagonalization with overlap
     ethr =  2.35E-10,  avg # of iterations =  2.0

     negative rho (up, down):  4.848E-04 0.000E+00

     total cpu time spent up to now is     4671.0 secs

     total energy              =    -176.32086061 Ry
     estimated scf accuracy    <          4.5E-09 Ry

     iteration #  3     ecut=    60.00 Ry     beta= 0.70
     Davidson diagonalization with overlap
     ethr =  1.41E-11,  avg # of iterations =  2.6

     negative rho (up, down):  4.848E-04 0.000E+00

     total cpu time spent up to now is     4677.0 secs

     total energy              =    -176.32086061 Ry
     estimated scf accuracy    <          1.4E-09 Ry

     iteration #  4     ecut=    60.00 Ry     beta= 0.70
     Davidson diagonalization with overlap
     ethr =  4.50E-12,  avg # of iterations =  2.5

     negative rho (up, down):  4.848E-04 0.000E+00

     total cpu time spent up to now is     4682.4 secs

     End of self-consistent calculation

          k = 0.0000 0.0000 0.0000 ( 18047 PWs)   bands (ev):

   -24.6505 -24.2338 -23.4480 -23.0847 -12.0270 -11.8868 -11.8776 -11.8153
   -10.1109  -9.0448  -7.5410  -7.0165  -6.4301  -6.4106  -6.3241  -6.1829

          k =-0.0153 0.2863 0.0000 ( 18132 PWs)   bands (ev):

   -24.5144 -24.1020 -23.6186 -23.2490 -12.1522 -12.1061 -11.6441 -11.5784
    -9.8812  -8.9625  -7.7405  -7.3454  -6.5427  -6.4432  -6.2137  -6.1019

          k = 0.0307-0.5725 0.0000 ( 18166 PWs)   bands (ev):

   -24.2880 -23.9022 -23.8564 -23.5035 -12.2179 -12.2045 -11.5087 -11.4275
    -9.5738  -8.8354  -8.0011  -7.7436  -6.5968  -6.4443  -6.1226  -6.0281

          k = 0.2575-0.1328 0.0000 ( 18109 PWs)   bands (ev):

   -24.5122 -24.0999 -23.6203 -23.2507 -12.1701 -12.1263 -11.6258 -11.5784
    -9.8762  -8.9623  -7.7361  -7.3394  -6.5389  -6.4421  -6.2081  -6.1035

          k = 0.2421 0.1535 0.0000 ( 18132 PWs)   bands (ev):

   -24.5138 -24.1070 -23.6187 -23.2435 -12.0706 -11.9217 -11.8954 -11.6844
    -9.7776  -8.8608  -7.9023  -7.4006  -6.4063  -6.3173  -6.2435  -6.2253

          k = 0.2882-0.7053 0.0000 ( 18147 PWs)   bands (ev):

   -24.2865 -23.9214 -23.8486 -23.4924 -12.1901 -12.1482 -11.6297 -11.4865
    -9.4093  -8.6191  -8.2719  -7.8559  -6.5100  -6.3962  -6.1193  -6.0575

          k = 0.2728-0.4190 0.0000 ( 18128 PWs)   bands (ev):

   -24.2836 -23.9029 -23.8550 -23.5074 -12.2401 -12.2338 -11.4843 -11.4243
    -9.5464  -8.8007  -8.0207  -7.7921  -6.5777  -6.4502  -6.0890  -6.0346

          k =-0.5150 0.2656 0.0000 ( 18184 PWs)   bands (ev):

   -24.2785 -23.9047 -23.8529 -23.5122 -12.2505 -12.2275 -11.4961 -11.4244
    -9.5696  -8.8382  -7.9895  -7.7209  -6.5892  -6.4446  -6.1125  -6.0275

          k =-0.5303 0.5518 0.0000 ( 18128 PWs)   bands (ev):

   -24.2817 -23.9218 -23.8480 -23.4966 -12.2058 -12.1639 -11.6210 -11.4823
    -9.4078  -8.6249  -8.2649  -7.8447  -6.5078  -6.3944  -6.1121  -6.0586

          k =-0.4843-0.3070 0.0000 ( 18166 PWs)   bands (ev):

   -24.2837 -23.9405 -23.8407 -23.4831 -12.1137 -11.9491 -11.8935 -11.5849
    -9.2235  -8.6906  -8.1729  -8.0363  -6.3646  -6.2991  -6.1932  -6.1746

     highest occupied level (ev):    -6.0275

!    total energy              =    -176.32086061 Ry
     estimated scf accuracy    <          6.8E-11 Ry

     convergence has been achieved in   4 iterations

     negative rho (up, down):  4.848E-04 0.000E+00

     Forces acting on atoms (cartesian axes, Ry/au):

     atom    1 type  1   force =     0.00003146    0.00007046   -0.00001421
     atom    2 type  1   force =    -0.00000501   -0.00002250   -0.00006174
     atom    3 type  1   force =     0.00000758   -0.00004884   -0.00002481
     atom    4 type  1   force =    -0.00000469    0.00001273    0.00000250
     atom    5 type  1   force =     0.00002001   -0.00003047    0.00001878
     atom    6 type  1   force =    -0.00001194   -0.00002313   -0.00001517
     atom    7 type  1   force =     0.00001610   -0.00007287    0.00003008
     atom    8 type  1   force =     0.00007514    0.00001091    0.00000968
     atom    9 type  2   force =    -0.00002827    0.00001877    0.00000595
     atom   10 type  2   force =    -0.00000287   -0.00005801    0.00004671
     atom   11 type  2   force =    -0.00003298    0.00001818    0.00000716
     atom   12 type  2   force =    -0.00006454    0.00012477   -0.00000493

     Total force =     0.000238     Total SCF correction =     0.000013

     Entering Dynamics:    iteration =    74

     <vel(dt)|acc(dt)> =   0.85499949

ATOMIC_POSITIONS (angstrom)
H             4.4729043580        3.7406999680       11.2229308130
H             5.3205167478        4.3025318320       10.0188836767
H             3.2975017103        1.1602215713        8.0894583743
H             3.1459663279        2.8663879800        9.3210657553
H             3.9934913805        3.4279487390        8.1168321508
H             6.3324726473        3.9854498917        8.0949461605
H             3.0056751398        1.8141473503       11.2507782553
H             2.1339740941        3.1833215737       11.2448765236
O             5.2902909991        4.2774033020       11.0196278345
O             3.1761132183        2.8913867154        8.3202663755
O             5.4281349446        4.3730081791        8.2654262919
O             3.0383448830        2.7955996556       11.0745938666



     Writing config-only to output data dir ./output/f-BH.save/
     NEW-OLD atomic charge density approx. for the potential

     negative rho (up, down):  4.848E-04 0.000E+00

     total cpu time spent up to now is     4695.3 secs

     per-process dynamical memory:   210.2 Mb

     Self-consistent Calculation

     iteration #  1     ecut=    60.00 Ry     beta= 0.70
     Davidson diagonalization with overlap
     ethr =  1.00E-06,  avg # of iterations =  2.0

     Threshold (ethr) on eigenvalues was too large:
     Diagonalizing with lowered threshold

     Davidson diagonalization with overlap
     ethr =  2.36E-10,  avg # of iterations =  3.3

     negative rho (up, down):  4.848E-04 0.000E+00

     total cpu time spent up to now is     4707.0 secs

     total energy              =    -176.32086069 Ry
     estimated scf accuracy    <       0.00000011 Ry

     iteration #  2     ecut=    60.00 Ry     beta= 0.70
     Davidson diagonalization with overlap
     ethr =  3.56E-10,  avg # of iterations =  2.0

     negative rho (up, down):  4.848E-04 0.000E+00

     total cpu time spent up to now is     4712.5 secs

     total energy              =    -176.32086070 Ry
     estimated scf accuracy    <       0.00000001 Ry

     iteration #  3     ecut=    60.00 Ry     beta= 0.70
     Davidson diagonalization with overlap
     ethr =  3.13E-11,  avg # of iterations =  2.3

     negative rho (up, down):  4.848E-04 0.000E+00

     total cpu time spent up to now is     4718.3 secs

     total energy              =    -176.32086070 Ry
     estimated scf accuracy    <          3.2E-09 Ry

     iteration #  4     ecut=    60.00 Ry     beta= 0.70
     Davidson diagonalization with overlap
     ethr =  1.01E-11,  avg # of iterations =  2.2

     negative rho (up, down):  4.848E-04 0.000E+00

     total cpu time spent up to now is     4723.6 secs

     End of self-consistent calculation

          k = 0.0000 0.0000 0.0000 ( 18047 PWs)   bands (ev):

   -24.6504 -24.2337 -23.4480 -23.0846 -12.0269 -11.8866 -11.8776 -11.8151
   -10.1106  -9.0449  -7.5410  -7.0166  -6.4301  -6.4104  -6.3241  -6.1827

          k =-0.0153 0.2863 0.0000 ( 18132 PWs)   bands (ev):

   -24.5143 -24.1019 -23.6185 -23.2489 -12.1519 -12.1058 -11.6440 -11.5785
    -9.8807  -8.9625  -7.7406  -7.3455  -6.5426  -6.4431  -6.2137  -6.1018

          k = 0.0307-0.5725 0.0000 ( 18166 PWs)   bands (ev):

   -24.2877 -23.9024 -23.8561 -23.5035 -12.2176 -12.2041 -11.5087 -11.4277
    -9.5732  -8.8351  -8.0014  -7.7439  -6.5966  -6.4442  -6.1225  -6.0280

          k = 0.2575-0.1328 0.0000 ( 18109 PWs)   bands (ev):

   -24.5121 -24.0998 -23.6202 -23.2506 -12.1699 -12.1262 -11.6256 -11.5783
    -9.8759  -8.9624  -7.7361  -7.3395  -6.5388  -6.4421  -6.2080  -6.1033

          k = 0.2421 0.1535 0.0000 ( 18132 PWs)   bands (ev):

   -24.5138 -24.1070 -23.6186 -23.2433 -12.0704 -11.9217 -11.8953 -11.6843
    -9.7773  -8.8609  -7.9022  -7.4006  -6.4060  -6.3174  -6.2435  -6.2251

          k = 0.2882-0.7053 0.0000 ( 18147 PWs)   bands (ev):

   -24.2864 -23.9215 -23.8482 -23.4923 -12.1898 -12.1480 -11.6298 -11.4866
    -9.4088  -8.6189  -8.2719  -7.8560  -6.5098  -6.3961  -6.1192  -6.0575

          k = 0.2728-0.4190 0.0000 ( 18128 PWs)   bands (ev):

   -24.2835 -23.9031 -23.8547 -23.5074 -12.2398 -12.2336 -11.4843 -11.4244
    -9.5459  -8.8006  -8.0208  -7.7922  -6.5776  -6.4501  -6.0890  -6.0345

          k =-0.5150 0.2656 0.0000 ( 18184 PWs)   bands (ev):

   -24.2784 -23.9048 -23.8527 -23.5120 -12.2503 -12.2274 -11.4959 -11.4244
    -9.5693  -8.8384  -7.9894  -7.7210  -6.5891  -6.4445  -6.1123  -6.0274

          k =-0.5303 0.5518 0.0000 ( 18128 PWs)   bands (ev):

   -24.2817 -23.9219 -23.8477 -23.4964 -12.2057 -12.1637 -11.6209 -11.4823
    -9.4075  -8.6250  -8.2649  -7.8447  -6.5076  -6.3943  -6.1120  -6.0585

          k =-0.4843-0.3070 0.0000 ( 18166 PWs)   bands (ev):

   -24.2838 -23.9407 -23.8404 -23.4829 -12.1136 -11.9489 -11.8935 -11.5849
    -9.2232  -8.6908  -8.1726  -8.0363  -6.3643  -6.2989  -6.1933  -6.1746

     highest occupied level (ev):    -6.0274

!    total energy              =    -176.32086070 Ry
     estimated scf accuracy    <          8.4E-11 Ry

     convergence has been achieved in   4 iterations

     negative rho (up, down):  4.848E-04 0.000E+00

     Forces acting on atoms (cartesian axes, Ry/au):

     atom    1 type  1   force =     0.00005249    0.00006440   -0.00003036
     atom    2 type  1   force =    -0.00000335   -0.00001826   -0.00006736
     atom    3 type  1   force =     0.00001055   -0.00003801   -0.00003481
     atom    4 type  1   force =     0.00000586    0.00000248   -0.00000822
     atom    5 type  1   force =     0.00002143   -0.00002652    0.00002611
     atom    6 type  1   force =    -0.00002711   -0.00001321   -0.00001206
     atom    7 type  1   force =     0.00003497   -0.00011485    0.00002779
     atom    8 type  1   force =     0.00010105    0.00000692    0.00000663
     atom    9 type  2   force =    -0.00006997   -0.00002218    0.00003425
     atom   10 type  2   force =    -0.00000073   -0.00004472    0.00006721
     atom   11 type  2   force =    -0.00003145   -0.00001090    0.00000832
     atom   12 type  2   force =    -0.00009373    0.00021485   -0.00001749

     Total force =     0.000337     Total SCF correction =     0.000015

     Entering Dynamics:    iteration =    75

     <vel(dt)|acc(dt)> =   0.99043264

ATOMIC_POSITIONS (angstrom)
H             4.4731553599        3.7415198240       11.2231501077
H             5.3205588316        4.3026965749       10.0186636032
H             3.2974722419        1.1599146340        8.0895795162
H             3.1458009566        2.8663365365        9.3210412500
H             3.9933598792        3.4273996939        8.1166269316
H             6.3324200988        3.9850939504        8.0948305917
H             3.0055581208        1.8141785282       11.2509016308
H             2.1341534071        3.1835449827       11.2449590072
O             5.2904377248        4.2780413350       11.0194940470
O             3.1759881864        2.8908910130        8.3202573486
O             5.4281017026        4.3726670782        8.2653915643
O             3.0383799411        2.7958226071       11.0747904794



     Writing config-only to output data dir ./output/f-BH.save/
     NEW-OLD atomic charge density approx. for the potential

     negative rho (up, down):  4.847E-04 0.000E+00

     total cpu time spent up to now is     4736.5 secs

     per-process dynamical memory:   210.2 Mb

     Self-consistent Calculation

     iteration #  1     ecut=    60.00 Ry     beta= 0.70
     Davidson diagonalization with overlap
     ethr =  1.00E-06,  avg # of iterations =  2.0

     Threshold (ethr) on eigenvalues was too large:
     Diagonalizing with lowered threshold

     Davidson diagonalization with overlap
     ethr =  9.33E-10,  avg # of iterations =  3.7

     negative rho (up, down):  4.847E-04 0.000E+00

     total cpu time spent up to now is     4748.5 secs

     total energy              =    -176.32086078 Ry
     estimated scf accuracy    <       0.00000044 Ry

     iteration #  2     ecut=    60.00 Ry     beta= 0.70
     Davidson diagonalization with overlap
     ethr =  1.38E-09,  avg # of iterations =  2.0

     negative rho (up, down):  4.847E-04 0.000E+00

     total cpu time spent up to now is     4753.7 secs

     total energy              =    -176.32086083 Ry
     estimated scf accuracy    <       0.00000003 Ry

     iteration #  3     ecut=    60.00 Ry     beta= 0.70
     Davidson diagonalization with overlap
     ethr =  8.68E-11,  avg # of iterations =  2.0

     negative rho (up, down):  4.847E-04 0.000E+00

     total cpu time spent up to now is     4759.5 secs

     total energy              =    -176.32086083 Ry
     estimated scf accuracy    <          7.3E-09 Ry

     iteration #  4     ecut=    60.00 Ry     beta= 0.70
     Davidson diagonalization with overlap
     ethr =  2.30E-11,  avg # of iterations =  2.0

     negative rho (up, down):  4.847E-04 0.000E+00

     total cpu time spent up to now is     4765.2 secs

     total energy              =    -176.32086083 Ry
     estimated scf accuracy    <          3.8E-10 Ry

     iteration #  5     ecut=    60.00 Ry     beta= 0.70
     Davidson diagonalization with overlap
     ethr =  1.19E-12,  avg # of iterations =  2.1

     negative rho (up, down):  4.847E-04 0.000E+00

     total cpu time spent up to now is     4770.7 secs

     End of self-consistent calculation

          k = 0.0000 0.0000 0.0000 ( 18047 PWs)   bands (ev):

   -24.6502 -24.2335 -23.4478 -23.0844 -12.0265 -11.8860 -11.8778 -11.8148
   -10.1099  -9.0450  -7.5410  -7.0166  -6.4301  -6.4098  -6.3242  -6.1821

          k =-0.0153 0.2863 0.0000 ( 18132 PWs)   bands (ev):

   -24.5141 -24.1017 -23.6184 -23.2488 -12.1514 -12.1054 -11.6437 -11.5788
    -9.8798  -8.9623  -7.7408  -7.3457  -6.5423  -6.4430  -6.2135  -6.1015

          k = 0.0307-0.5725 0.0000 ( 18166 PWs)   bands (ev):

   -24.2873 -23.9029 -23.8552 -23.5035 -12.2173 -12.2033 -11.5085 -11.4282
    -9.5718  -8.8344  -8.0020  -7.7445  -6.5962  -6.4439  -6.1223  -6.0279

          k = 0.2575-0.1328 0.0000 ( 18109 PWs)   bands (ev):

   -24.5119 -24.0997 -23.6200 -23.2504 -12.1693 -12.1259 -11.6255 -11.5781
    -9.8754  -8.9626  -7.7360  -7.3394  -6.5386  -6.4420  -6.2079  -6.1028

          k = 0.2421 0.1535 0.0000 ( 18132 PWs)   bands (ev):

   -24.5137 -24.1069 -23.6183 -23.2431 -12.0699 -11.9213 -11.8952 -11.6843
    -9.7767  -8.8610  -7.9021  -7.4005  -6.4055  -6.3174  -6.2436  -6.2246

          k = 0.2882-0.7053 0.0000 ( 18147 PWs)   bands (ev):

   -24.2862 -23.9220 -23.8474 -23.4921 -12.1893 -12.1475 -11.6297 -11.4869
    -9.4076  -8.6184  -8.2722  -7.8564  -6.5094  -6.3958  -6.1191  -6.0574

          k = 0.2728-0.4190 0.0000 ( 18128 PWs)   bands (ev):

   -24.2832 -23.9036 -23.8539 -23.5073 -12.2392 -12.2332 -11.4841 -11.4247
    -9.5450  -8.8004  -8.0209  -7.7925  -6.5773  -6.4499  -6.0888  -6.0343

          k =-0.5150 0.2656 0.0000 ( 18184 PWs)   bands (ev):

   -24.2783 -23.9052 -23.8519 -23.5117 -12.2496 -12.2271 -11.4958 -11.4243
    -9.5690  -8.8387  -7.9891  -7.7209  -6.5889  -6.4443  -6.1120  -6.0270

          k =-0.5303 0.5518 0.0000 ( 18128 PWs)   bands (ev):

   -24.2816 -23.9224 -23.8469 -23.4960 -12.2052 -12.1634 -11.6208 -11.4823
    -9.4071  -8.6251  -8.2647  -7.8445  -6.5073  -6.3940  -6.1119  -6.0583

          k =-0.4843-0.3070 0.0000 ( 18166 PWs)   bands (ev):

   -24.2838 -23.9411 -23.8395 -23.4824 -12.1131 -11.9484 -11.8936 -11.5852
    -9.2225  -8.6911  -8.1720  -8.0363  -6.3636  -6.2985  -6.1935  -6.1747

     highest occupied level (ev):    -6.0270

!    total energy              =    -176.32086083 Ry
     estimated scf accuracy    <          9.1E-11 Ry

     convergence has been achieved in   5 iterations

     negative rho (up, down):  4.847E-04 0.000E+00

     Forces acting on atoms (cartesian axes, Ry/au):

     atom    1 type  1   force =    -0.00004827   -0.00002610   -0.00002494
     atom    2 type  1   force =    -0.00000554   -0.00001395    0.00001969
     atom    3 type  1   force =     0.00000914   -0.00003193   -0.00004582
     atom    4 type  1   force =     0.00002109   -0.00001512    0.00004747
     atom    5 type  1   force =     0.00000387   -0.00003224    0.00004684
     atom    6 type  1   force =    -0.00004057   -0.00000771   -0.00000556
     atom    7 type  1   force =     0.00007181    0.00010712   -0.00003555
     atom    8 type  1   force =    -0.00004492    0.00008095    0.00004459
     atom    9 type  2   force =    -0.00000975    0.00002487   -0.00004742
     atom   10 type  2   force =     0.00002667   -0.00000573    0.00001577
     atom   11 type  2   force =    -0.00003444   -0.00003170    0.00000771
     atom   12 type  2   force =     0.00005090   -0.00004845   -0.00002278

     Total force =     0.000236     Total SCF correction =     0.000013

     Entering Dynamics:    iteration =    76

     <vel(dt)|acc(dt)> =   0.92116135

ATOMIC_POSITIONS (angstrom)
H             4.4732686538        3.7422158594       11.2232810910
H             5.3205838250        4.3028144177       10.0185074860
H             3.2974707780        1.1595440309        8.0895642188
H             3.1457074464        2.8662433845        9.3211427451
H             3.9932481016        3.4267989468        8.1165650450
H             6.3322544242        3.9847431966        8.0947082361
H             3.0056512457        1.8144799789       11.2509203572
H             2.1342113851        3.1839724457       11.2451561626
O             5.2905312822        4.2786902025       11.0192516940
O             3.1759442304        2.8904154661        8.3203008116
O             5.4279771967        4.3722499923        8.2653805334
O             3.0385378817        2.7959388366       11.0749076970



     Writing config-only to output data dir ./output/f-BH.save/
     NEW-OLD atomic charge density approx. for the potential

     negative rho (up, down):  4.846E-04 0.000E+00

     total cpu time spent up to now is     4783.7 secs

     per-process dynamical memory:   210.2 Mb

     Self-consistent Calculation

     iteration #  1     ecut=    60.00 Ry     beta= 0.70
     Davidson diagonalization with overlap
     ethr =  1.00E-06,  avg # of iterations =  2.0

     Threshold (ethr) on eigenvalues was too large:
     Diagonalizing with lowered threshold

     Davidson diagonalization with overlap
     ethr =  9.59E-10,  avg # of iterations =  3.6

     negative rho (up, down):  4.847E-04 0.000E+00

     total cpu time spent up to now is     4795.8 secs

     total energy              =    -176.32086078 Ry
     estimated scf accuracy    <       0.00000047 Ry

     iteration #  2     ecut=    60.00 Ry     beta= 0.70
     Davidson diagonalization with overlap
     ethr =  1.47E-09,  avg # of iterations =  2.0

     negative rho (up, down):  4.846E-04 0.000E+00

     total cpu time spent up to now is     4801.3 secs

     total energy              =    -176.32086084 Ry
     estimated scf accuracy    <       0.00000002 Ry

     iteration #  3     ecut=    60.00 Ry     beta= 0.70
     Davidson diagonalization with overlap
     ethr =  7.03E-11,  avg # of iterations =  2.0

     negative rho (up, down):  4.846E-04 0.000E+00

     total cpu time spent up to now is     4806.8 secs

     total energy              =    -176.32086084 Ry
     estimated scf accuracy    <          2.4E-09 Ry

     iteration #  4     ecut=    60.00 Ry     beta= 0.70
     Davidson diagonalization with overlap
     ethr =  7.55E-12,  avg # of iterations =  2.6

     negative rho (up, down):  4.846E-04 0.000E+00

     total cpu time spent up to now is     4812.7 secs

     total energy              =    -176.32086084 Ry
     estimated scf accuracy    <          4.8E-10 Ry

     iteration #  5     ecut=    60.00 Ry     beta= 0.70
     Davidson diagonalization with overlap
     ethr =  1.49E-12,  avg # of iterations =  2.3

     negative rho (up, down):  4.846E-04 0.000E+00

     total cpu time spent up to now is     4818.2 secs

     End of self-consistent calculation

          k = 0.0000 0.0000 0.0000 ( 18047 PWs)   bands (ev):

   -24.6499 -24.2332 -23.4477 -23.0841 -12.0260 -11.8855 -11.8777 -11.8143
   -10.1094  -9.0450  -7.5409  -7.0163  -6.4298  -6.4093  -6.3240  -6.1817

          k =-0.0153 0.2863 0.0000 ( 18132 PWs)   bands (ev):

   -24.5138 -24.1013 -23.6183 -23.2485 -12.1506 -12.1046 -11.6437 -11.5789
    -9.8791  -8.9621  -7.7407  -7.3454  -6.5419  -6.4427  -6.2131  -6.1012

          k = 0.0307-0.5725 0.0000 ( 18166 PWs)   bands (ev):

   -24.2869 -23.9030 -23.8546 -23.5035 -12.2165 -12.2023 -11.5087 -11.4287
    -9.5709  -8.8336  -8.0021  -7.7445  -6.5959  -6.4436  -6.1219  -6.0277

          k = 0.2575-0.1328 0.0000 ( 18109 PWs)   bands (ev):

   -24.5117 -24.0994 -23.6198 -23.2500 -12.1689 -12.1256 -11.6251 -11.5778
    -9.8749  -8.9626  -7.7358  -7.3391  -6.5383  -6.4417  -6.2074  -6.1022

          k = 0.2421 0.1535 0.0000 ( 18132 PWs)   bands (ev):

   -24.5134 -24.1066 -23.6181 -23.2428 -12.0694 -11.9210 -11.8947 -11.6841
    -9.7762  -8.8609  -7.9019  -7.4002  -6.4050  -6.3171  -6.2434  -6.2242

          k = 0.2882-0.7053 0.0000 ( 18147 PWs)   bands (ev):

   -24.2859 -23.9220 -23.8469 -23.4919 -12.1885 -12.1468 -11.6297 -11.4871
    -9.4069  -8.6180  -8.2721  -7.8563  -6.5090  -6.3954  -6.1188  -6.0572

          k = 0.2728-0.4190 0.0000 ( 18128 PWs)   bands (ev):

   -24.2830 -23.9037 -23.8533 -23.5070 -12.2385 -12.2326 -11.4841 -11.4248
    -9.5443  -8.8001  -8.0208  -7.7922  -6.5770  -6.4496  -6.0883  -6.0339

          k =-0.5150 0.2656 0.0000 ( 18184 PWs)   bands (ev):

   -24.2783 -23.9052 -23.8514 -23.5112 -12.2491 -12.2269 -11.4955 -11.4241
    -9.5685  -8.8388  -7.9887  -7.7205  -6.5886  -6.4441  -6.1115  -6.0264

          k =-0.5303 0.5518 0.0000 ( 18128 PWs)   bands (ev):

   -24.2816 -23.9224 -23.8463 -23.4956 -12.2048 -12.1630 -11.6206 -11.4822
    -9.4066  -8.6250  -8.2644  -7.8441  -6.5070  -6.3938  -6.1114  -6.0578

          k =-0.4843-0.3070 0.0000 ( 18166 PWs)   bands (ev):

   -24.2837 -23.9411 -23.8390 -23.4820 -12.1125 -11.9479 -11.8935 -11.5851
    -9.2220  -8.6911  -8.1714  -8.0360  -6.3631  -6.2981  -6.1932  -6.1745

     highest occupied level (ev):    -6.0264

!    total energy              =    -176.32086084 Ry
     estimated scf accuracy    <          1.3E-11 Ry

     convergence has been achieved in   5 iterations

     negative rho (up, down):  4.846E-04 0.000E+00

     Forces acting on atoms (cartesian axes, Ry/au):

     atom    1 type  1   force =     0.00001794   -0.00001674   -0.00006075
     atom    2 type  1   force =    -0.00000245    0.00000216   -0.00013750
     atom    3 type  1   force =    -0.00002570   -0.00008412   -0.00002195
     atom    4 type  1   force =     0.00002874   -0.00003522   -0.00001525
     atom    5 type  1   force =     0.00010791    0.00004757    0.00001912
     atom    6 type  1   force =    -0.00000671   -0.00004996   -0.00000158
     atom    7 type  1   force =     0.00005162   -0.00018475    0.00001325
     atom    8 type  1   force =     0.00025821   -0.00007724   -0.00003120
     atom    9 type  2   force =    -0.00006822   -0.00008750    0.00017482
     atom   10 type  2   force =    -0.00008391   -0.00007033    0.00010933
     atom   11 type  2   force =    -0.00002786    0.00006673   -0.00002985
     atom   12 type  2   force =    -0.00024957    0.00048940   -0.00001844

     Total force =     0.000732     Total SCF correction =     0.000007

     Entering Dynamics:    iteration =    77

     <vel(dt)|acc(dt)> =  -0.91639078

ATOMIC_POSITIONS (angstrom)
H             4.4732362725        3.7421077019       11.2232462579
H             5.3205776148        4.3027915830       10.0185193037
H             3.2974715717        1.1595725838        8.0895461049
H             3.1457313890        2.8662477948        9.3211451987
H             3.9932786810        3.4268764961        8.1165941353
H             6.3322622129        3.9847830472        8.0947226632
H             3.0056708257        1.8144558842       11.2509069138
H             2.1342174137        3.1839339197       11.2451418903
O             5.2905075396        4.2785999071       11.0192872640
O             3.1759506272        2.8904700588        8.3203138946
O             5.4279773648        4.3723072906        8.2653817433
O             3.0385049379        2.7959604907       11.0748807082



     Writing config-only to output data dir ./output/f-BH.save/
     NEW-OLD atomic charge density approx. for the potential

     negative rho (up, down):  4.847E-04 0.000E+00

     total cpu time spent up to now is     4831.1 secs

     per-process dynamical memory:   210.2 Mb

     Self-consistent Calculation

     iteration #  1     ecut=    60.00 Ry     beta= 0.70
     Davidson diagonalization with overlap
     ethr =  1.00E-06,  avg # of iterations =  2.0

     Threshold (ethr) on eigenvalues was too large:
     Diagonalizing with lowered threshold

     Davidson diagonalization with overlap
     ethr =  1.81E-11,  avg # of iterations =  4.0

     negative rho (up, down):  4.847E-04 0.000E+00

     total cpu time spent up to now is     4843.1 secs

     total energy              =    -176.32086092 Ry
     estimated scf accuracy    <       0.00000001 Ry

     iteration #  2     ecut=    60.00 Ry     beta= 0.70
     Davidson diagonalization with overlap
     ethr =  3.57E-11,  avg # of iterations =  2.0

     negative rho (up, down):  4.847E-04 0.000E+00

     total cpu time spent up to now is     4848.5 secs

     total energy              =    -176.32086092 Ry
     estimated scf accuracy    <          4.2E-10 Ry

     iteration #  3     ecut=    60.00 Ry     beta= 0.70
     Davidson diagonalization with overlap
     ethr =  1.31E-12,  avg # of iterations =  2.0

     negative rho (up, down):  4.847E-04 0.000E+00

     total cpu time spent up to now is     4853.7 secs

     End of self-consistent calculation

          k = 0.0000 0.0000 0.0000 ( 18047 PWs)   bands (ev):

   -24.6499 -24.2332 -23.4477 -23.0841 -12.0261 -11.8856 -11.8776 -11.8142
   -10.1096  -9.0450  -7.5409  -7.0163  -6.4298  -6.4095  -6.3240  -6.1818

          k =-0.0153 0.2863 0.0000 ( 18132 PWs)   bands (ev):

   -24.5138 -24.1013 -23.6183 -23.2485 -12.1508 -12.1047 -11.6437 -11.5789
    -9.8793  -8.9621  -7.7407  -7.3454  -6.5420  -6.4427  -6.2131  -6.1012

          k = 0.0307-0.5725 0.0000 ( 18166 PWs)   bands (ev):

   -24.2869 -23.9029 -23.8548 -23.5034 -12.2166 -12.2024 -11.5086 -11.4286
    -9.5711  -8.8337  -8.0020  -7.7444  -6.5959  -6.4437  -6.1219  -6.0277

          k = 0.2575-0.1328 0.0000 ( 18109 PWs)   bands (ev):

   -24.5117 -24.0994 -23.6198 -23.2501 -12.1689 -12.1256 -11.6252 -11.5778
    -9.8750  -8.9626  -7.7358  -7.3391  -6.5384  -6.4417  -6.2074  -6.1022

          k = 0.2421 0.1535 0.0000 ( 18132 PWs)   bands (ev):

   -24.5134 -24.1066 -23.6181 -23.2428 -12.0696 -11.9211 -11.8947 -11.6840
    -9.7763  -8.8609  -7.9019  -7.4002  -6.4051  -6.3171  -6.2434  -6.2243

          k = 0.2882-0.7053 0.0000 ( 18147 PWs)   bands (ev):

   -24.2859 -23.9219 -23.8471 -23.4919 -12.1887 -12.1469 -11.6297 -11.4870
    -9.4070  -8.6180  -8.2721  -7.8563  -6.5091  -6.3955  -6.1188  -6.0572

          k = 0.2728-0.4190 0.0000 ( 18128 PWs)   bands (ev):

   -24.2830 -23.9035 -23.8535 -23.5070 -12.2386 -12.2327 -11.4841 -11.4247
    -9.5445  -8.8001  -8.0207  -7.7922  -6.5770  -6.4496  -6.0884  -6.0339

          k =-0.5150 0.2656 0.0000 ( 18184 PWs)   bands (ev):

   -24.2783 -23.9050 -23.8516 -23.5113 -12.2492 -12.2269 -11.4955 -11.4241
    -9.5687  -8.8388  -7.9887  -7.7205  -6.5886  -6.4441  -6.1116  -6.0265

          k =-0.5303 0.5518 0.0000 ( 18128 PWs)   bands (ev):

   -24.2815 -23.9222 -23.8465 -23.4956 -12.2049 -12.1630 -11.6206 -11.4821
    -9.4067  -8.6251  -8.2644  -7.8441  -6.5070  -6.3938  -6.1114  -6.0578

          k =-0.4843-0.3070 0.0000 ( 18166 PWs)   bands (ev):

   -24.2837 -23.9409 -23.8392 -23.4821 -12.1127 -11.9480 -11.8934 -11.5850
    -9.2221  -8.6911  -8.1715  -8.0360  -6.3632  -6.2982  -6.1932  -6.1745

     highest occupied level (ev):    -6.0265

!    total energy              =    -176.32086092 Ry
     estimated scf accuracy    <          3.9E-11 Ry

     convergence has been achieved in   3 iterations

     negative rho (up, down):  4.847E-04 0.000E+00

     Forces acting on atoms (cartesian axes, Ry/au):

     atom    1 type  1   force =     0.00001349   -0.00001052   -0.00005489
     atom    2 type  1   force =    -0.00000233    0.00000171   -0.00009736
     atom    3 type  1   force =    -0.00002399   -0.00004962   -0.00002685
     atom    4 type  1   force =     0.00002357   -0.00003228   -0.00000267
     atom    5 type  1   force =     0.00007468    0.00002610    0.00002490
     atom    6 type  1   force =    -0.00001735   -0.00004442    0.00000087
     atom    7 type  1   force =     0.00004778   -0.00011816    0.00000309
     atom    8 type  1   force =     0.00018256   -0.00004559   -0.00001527
     atom    9 type  2   force =    -0.00006541   -0.00007140    0.00012680
     atom   10 type  2   force =    -0.00005039   -0.00004815    0.00008499
     atom   11 type  2   force =    -0.00001632    0.00002323   -0.00002449
     atom   12 type  2   force =    -0.00016629    0.00036910   -0.00001913

     Total force =     0.000531     Total SCF correction =     0.000008

     Entering Dynamics:    iteration =    78

     <vel(dt)|acc(dt)> =   0.36336719

ATOMIC_POSITIONS (angstrom)
H             4.4731902837        3.7420552169       11.2231851213
H             5.3205688256        4.3027706695       10.0184941222
H             3.2974650713        1.1595349530        8.0894831047
H             3.1457660171        2.8662212353        9.3211924480
H             3.9933234994        3.4268770165        8.1166608103
H             6.3322172527        3.9847600652        8.0947225205
H             3.0057617980        1.8144986726       11.2508731582
H             2.1342599996        3.1839773399       11.2451740156
O             5.2904588173        4.2785651158       11.0193095845
O             3.1759591232        2.8904557847        8.3203719391
O             5.4279413617        4.3723003247        8.2653760993
O             3.0384744011        2.7960903640       11.0748431544



     Writing config-only to output data dir ./output/f-BH.save/
     NEW-OLD atomic charge density approx. for the potential

     negative rho (up, down):  4.847E-04 0.000E+00

     total cpu time spent up to now is     4866.4 secs

     per-process dynamical memory:   210.3 Mb

     Self-consistent Calculation

     iteration #  1     ecut=    60.00 Ry     beta= 0.70
     Davidson diagonalization with overlap
     ethr =  1.00E-06,  avg # of iterations =  2.0

     Threshold (ethr) on eigenvalues was too large:
     Diagonalizing with lowered threshold

     Davidson diagonalization with overlap
     ethr =  4.15E-11,  avg # of iterations =  3.2

     negative rho (up, down):  4.847E-04 0.000E+00

     total cpu time spent up to now is     4878.0 secs

     total energy              =    -176.32086105 Ry
     estimated scf accuracy    <       0.00000002 Ry

     iteration #  2     ecut=    60.00 Ry     beta= 0.70
     Davidson diagonalization with overlap
     ethr =  7.52E-11,  avg # of iterations =  2.0

     negative rho (up, down):  4.847E-04 0.000E+00

     total cpu time spent up to now is     4883.4 secs

     total energy              =    -176.32086105 Ry
     estimated scf accuracy    <          1.6E-09 Ry

     iteration #  3     ecut=    60.00 Ry     beta= 0.70
     Davidson diagonalization with overlap
     ethr =  4.87E-12,  avg # of iterations =  2.4

     negative rho (up, down):  4.847E-04 0.000E+00

     total cpu time spent up to now is     4889.3 secs

     total energy              =    -176.32086105 Ry
     estimated scf accuracy    <          4.0E-10 Ry

     iteration #  4     ecut=    60.00 Ry     beta= 0.70
     Davidson diagonalization with overlap
     ethr =  1.24E-12,  avg # of iterations =  2.2

     negative rho (up, down):  4.847E-04 0.000E+00

     total cpu time spent up to now is     4894.7 secs

     End of self-consistent calculation

          k = 0.0000 0.0000 0.0000 ( 18047 PWs)   bands (ev):

   -24.6499 -24.2331 -23.4476 -23.0841 -12.0263 -11.8857 -11.8772 -11.8141
   -10.1097  -9.0449  -7.5409  -7.0162  -6.4296  -6.4096  -6.3238  -6.1819

          k =-0.0153 0.2863 0.0000 ( 18132 PWs)   bands (ev):

   -24.5137 -24.1012 -23.6182 -23.2484 -12.1508 -12.1047 -11.6435 -11.5787
    -9.8794  -8.9620  -7.7407  -7.3453  -6.5420  -6.4426  -6.2130  -6.1012

          k = 0.0307-0.5725 0.0000 ( 18166 PWs)   bands (ev):

   -24.2869 -23.9024 -23.8551 -23.5033 -12.2167 -12.2025 -11.5084 -11.4284
    -9.5712  -8.8337  -8.0020  -7.7442  -6.5959  -6.4437  -6.1219  -6.0276

          k = 0.2575-0.1328 0.0000 ( 18109 PWs)   bands (ev):

   -24.5117 -24.0993 -23.6198 -23.2500 -12.1688 -12.1255 -11.6252 -11.5776
    -9.8753  -8.9625  -7.7358  -7.3389  -6.5384  -6.4417  -6.2074  -6.1023

          k = 0.2421 0.1535 0.0000 ( 18132 PWs)   bands (ev):

   -24.5133 -24.1064 -23.6181 -23.2427 -12.0697 -11.9210 -11.8946 -11.6836
    -9.7765  -8.8608  -7.9019  -7.4001  -6.4053  -6.3169  -6.2432  -6.2244

          k = 0.2882-0.7053 0.0000 ( 18147 PWs)   bands (ev):

   -24.2859 -23.9215 -23.8473 -23.4918 -12.1888 -12.1469 -11.6296 -11.4867
    -9.4072  -8.6180  -8.2721  -7.8561  -6.5091  -6.3955  -6.1187  -6.0571

          k = 0.2728-0.4190 0.0000 ( 18128 PWs)   bands (ev):

   -24.2829 -23.9031 -23.8537 -23.5069 -12.2385 -12.2328 -11.4840 -11.4246
    -9.5447  -8.8001  -8.0207  -7.7919  -6.5771  -6.4496  -6.0883  -6.0339

          k =-0.5150 0.2656 0.0000 ( 18184 PWs)   bands (ev):

   -24.2782 -23.9046 -23.8518 -23.5112 -12.2490 -12.2269 -11.4956 -11.4239
    -9.5690  -8.8387  -7.9886  -7.7202  -6.5887  -6.4441  -6.1115  -6.0265

          k =-0.5303 0.5518 0.0000 ( 18128 PWs)   bands (ev):

   -24.2814 -23.9218 -23.8468 -23.4956 -12.2048 -12.1629 -11.6206 -11.4818
    -9.4070  -8.6250  -8.2643  -7.8439  -6.5071  -6.3938  -6.1113  -6.0578

          k =-0.4843-0.3070 0.0000 ( 18166 PWs)   bands (ev):

   -24.2835 -23.9405 -23.8395 -23.4821 -12.1128 -11.9482 -11.8930 -11.5845
    -9.2223  -8.6909  -8.1716  -8.0359  -6.3634  -6.2984  -6.1929  -6.1743

     highest occupied level (ev):    -6.0265

!    total energy              =    -176.32086105 Ry
     estimated scf accuracy    <          2.0E-11 Ry

     convergence has been achieved in   4 iterations

     negative rho (up, down):  4.847E-04 0.000E+00

     Forces acting on atoms (cartesian axes, Ry/au):

     atom    1 type  1   force =    -0.00000802   -0.00001006   -0.00004051
     atom    2 type  1   force =    -0.00000253    0.00000311   -0.00002489
     atom    3 type  1   force =    -0.00002960   -0.00001804   -0.00002280
     atom    4 type  1   force =     0.00001218   -0.00002826    0.00001316
     atom    5 type  1   force =     0.00002939    0.00000120    0.00002938
     atom    6 type  1   force =    -0.00001053   -0.00005000    0.00000383
     atom    7 type  1   force =     0.00003145   -0.00000254   -0.00001354
     atom    8 type  1   force =     0.00006589   -0.00000458    0.00000449
     atom    9 type  2   force =    -0.00003809   -0.00003667    0.00003960
     atom   10 type  2   force =    -0.00000510   -0.00002231    0.00004757
     atom   11 type  2   force =    -0.00000887   -0.00000615   -0.00002358
     atom   12 type  2   force =    -0.00003616    0.00017428   -0.00001271

     Total force =     0.000234     Total SCF correction =     0.000005

     Entering Dynamics:    iteration =    79

     <vel(dt)|acc(dt)> =   0.62775433

ATOMIC_POSITIONS (angstrom)
H             4.4731612710        3.7421866193       11.2231413831
H             5.3205648596        4.3027822566       10.0184211158
H             3.2974422869        1.1593789747        8.0894040734
H             3.1457802955        2.8661552161        9.3212794868
H             3.9933514220        3.4267096788        8.1167277043
H             6.3321245986        3.9846108953        8.0946895493
H             3.0058953657        1.8146446126       11.2508343705
H             2.1343392422        3.1841442475       11.2452669404
O             5.2904266111        4.2787015146       11.0192704710
O             3.1759559714        2.8902966288        8.3204631560
O             5.4278613632        4.3721825301        8.2653550454
O             3.0384831637        2.7963135837       11.0748327820



     Writing config-only to output data dir ./output/f-BH.save/
     NEW-OLD atomic charge density approx. for the potential

     negative rho (up, down):  4.847E-04 0.000E+00

     total cpu time spent up to now is     4907.5 secs

     per-process dynamical memory:   210.3 Mb

     Self-consistent Calculation

     iteration #  1     ecut=    60.00 Ry     beta= 0.70
     Davidson diagonalization with overlap
     ethr =  1.00E-06,  avg # of iterations =  2.0

     Threshold (ethr) on eigenvalues was too large:
     Diagonalizing with lowered threshold

     Davidson diagonalization with overlap
     ethr =  1.35E-10,  avg # of iterations =  3.9

     negative rho (up, down):  4.847E-04 0.000E+00

     total cpu time spent up to now is     4919.6 secs

     total energy              =    -176.32086116 Ry
     estimated scf accuracy    <       0.00000007 Ry

     iteration #  2     ecut=    60.00 Ry     beta= 0.70
     Davidson diagonalization with overlap
     ethr =  2.08E-10,  avg # of iterations =  2.0

     negative rho (up, down):  4.847E-04 0.000E+00

     total cpu time spent up to now is     4925.0 secs

     total energy              =    -176.32086117 Ry
     estimated scf accuracy    <          4.8E-09 Ry

     iteration #  3     ecut=    60.00 Ry     beta= 0.70
     Davidson diagonalization with overlap
     ethr =  1.49E-11,  avg # of iterations =  2.4

     negative rho (up, down):  4.847E-04 0.000E+00

     total cpu time spent up to now is     4930.7 secs

     total energy              =    -176.32086117 Ry
     estimated scf accuracy    <          1.3E-09 Ry

     iteration #  4     ecut=    60.00 Ry     beta= 0.70
     Davidson diagonalization with overlap
     ethr =  4.21E-12,  avg # of iterations =  2.4

     negative rho (up, down):  4.847E-04 0.000E+00

     total cpu time spent up to now is     4936.2 secs

     End of self-consistent calculation

          k = 0.0000 0.0000 0.0000 ( 18047 PWs)   bands (ev):

   -24.6497 -24.2328 -23.4476 -23.0839 -12.0263 -11.8856 -11.8768 -11.8138
   -10.1098  -9.0449  -7.5408  -7.0160  -6.4293  -6.4097  -6.3235  -6.1819

          k =-0.0153 0.2863 0.0000 ( 18132 PWs)   bands (ev):

   -24.5136 -24.1010 -23.6182 -23.2483 -12.1508 -12.1045 -11.6432 -11.5786
    -9.8794  -8.9619  -7.7406  -7.3451  -6.5419  -6.4425  -6.2129  -6.1012

          k = 0.0307-0.5725 0.0000 ( 18166 PWs)   bands (ev):

   -24.2868 -23.9020 -23.8552 -23.5031 -12.2166 -12.2024 -11.5082 -11.4284
    -9.5711  -8.8334  -8.0020  -7.7440  -6.5958  -6.4437  -6.1217  -6.0275

          k = 0.2575-0.1328 0.0000 ( 18109 PWs)   bands (ev):

   -24.5115 -24.0991 -23.6197 -23.2499 -12.1687 -12.1254 -11.6252 -11.5773
    -9.8754  -8.9624  -7.7356  -7.3386  -6.5384  -6.4415  -6.2072  -6.1022

          k = 0.2421 0.1535 0.0000 ( 18132 PWs)   bands (ev):

   -24.5132 -24.1062 -23.6181 -23.2426 -12.0698 -11.9209 -11.8944 -11.6832
    -9.7765  -8.8607  -7.9018  -7.3999  -6.4054  -6.3166  -6.2429  -6.2244

          k = 0.2882-0.7053 0.0000 ( 18147 PWs)   bands (ev):

   -24.2857 -23.9210 -23.8475 -23.4917 -12.1888 -12.1467 -11.6294 -11.4864
    -9.4072  -8.6178  -8.2720  -7.8560  -6.5090  -6.3955  -6.1185  -6.0570

          k = 0.2728-0.4190 0.0000 ( 18128 PWs)   bands (ev):

   -24.2828 -23.9026 -23.8539 -23.5067 -12.2382 -12.2327 -11.4839 -11.4244
    -9.5448  -8.8000  -8.0205  -7.7916  -6.5770  -6.4496  -6.0881  -6.0337

          k =-0.5150 0.2656 0.0000 ( 18184 PWs)   bands (ev):

   -24.2781 -23.9042 -23.8520 -23.5110 -12.2487 -12.2268 -11.4957 -11.4236
    -9.5692  -8.8387  -7.9883  -7.7198  -6.5887  -6.4440  -6.1114  -6.0263

          k =-0.5303 0.5518 0.0000 ( 18128 PWs)   bands (ev):

   -24.2813 -23.9213 -23.8470 -23.4955 -12.2047 -12.1627 -11.6205 -11.4815
    -9.4072  -8.6250  -8.2640  -7.8436  -6.5071  -6.3938  -6.1111  -6.0576

          k =-0.4843-0.3070 0.0000 ( 18166 PWs)   bands (ev):

   -24.2833 -23.9400 -23.8397 -23.4820 -12.1129 -11.9483 -11.8926 -11.5840
    -9.2224  -8.6908  -8.1716  -8.0358  -6.3635  -6.2985  -6.1926  -6.1740

     highest occupied level (ev):    -6.0263

!    total energy              =    -176.32086117 Ry
     estimated scf accuracy    <          5.9E-11 Ry

     convergence has been achieved in   4 iterations

     negative rho (up, down):  4.847E-04 0.000E+00

     Forces acting on atoms (cartesian axes, Ry/au):

     atom    1 type  1   force =    -0.00001554   -0.00000515   -0.00003260
     atom    2 type  1   force =    -0.00000119    0.00000919    0.00002102
     atom    3 type  1   force =    -0.00003881    0.00002672   -0.00001809
     atom    4 type  1   force =     0.00000124   -0.00002730    0.00002445
     atom    5 type  1   force =    -0.00000790   -0.00001385    0.00003071
     atom    6 type  1   force =    -0.00001423   -0.00005226    0.00001147
     atom    7 type  1   force =     0.00001172    0.00008616   -0.00002608
     atom    8 type  1   force =    -0.00002062    0.00001967    0.00001302
     atom    9 type  2   force =    -0.00002505   -0.00002212   -0.00000650
     atom   10 type  2   force =     0.00002838    0.00000104    0.00001511
     atom   11 type  2   force =     0.00001769   -0.00005412   -0.00003001
     atom   12 type  2   force =     0.00006430    0.00003202   -0.00000250

     Total force =     0.000175     Total SCF correction =     0.000010

     Entering Dynamics:    iteration =    80

     <vel(dt)|acc(dt)> =   0.98767383

ATOMIC_POSITIONS (angstrom)
H             4.4731350631        3.7425613751       11.2230826802
H             5.3205642106        4.3028362411       10.0182638186
H             3.2973797077        1.1590515281        8.0892670855
H             3.1457807494        2.8660106904        9.3214542718
H             3.9933737886        3.4262977622        8.1168343655
H             6.3319302866        3.9842551659        8.0946152605
H             3.0061340511        1.8149863456       11.2507649275
H             2.1344890209        3.1845133645       11.2454630347
O             5.2903844603        4.2790577591       11.0191653172
O             3.1759457815        2.8899210469        8.3206320710
O             5.4277183481        4.3718695818        8.2652959795
O             3.0385509829        2.7967458974       11.0748472659



     Writing config-only to output data dir ./output/f-BH.save/
     NEW-OLD atomic charge density approx. for the potential

     negative rho (up, down):  4.846E-04 0.000E+00

     total cpu time spent up to now is     4949.1 secs

     per-process dynamical memory:   210.3 Mb

     Self-consistent Calculation

     iteration #  1     ecut=    60.00 Ry     beta= 0.70
     Davidson diagonalization with overlap
     ethr =  1.00E-06,  avg # of iterations =  2.0

     Threshold (ethr) on eigenvalues was too large:
     Diagonalizing with lowered threshold

     Davidson diagonalization with overlap
     ethr =  6.30E-10,  avg # of iterations =  3.5

     negative rho (up, down):  4.846E-04 0.000E+00

     total cpu time spent up to now is     4961.2 secs

     total energy              =    -176.32086127 Ry
     estimated scf accuracy    <       0.00000030 Ry

     iteration #  2     ecut=    60.00 Ry     beta= 0.70
     Davidson diagonalization with overlap
     ethr =  9.36E-10,  avg # of iterations =  2.0

     negative rho (up, down):  4.846E-04 0.000E+00

     total cpu time spent up to now is     4966.6 secs

     total energy              =    -176.32086131 Ry
     estimated scf accuracy    <       0.00000002 Ry

     iteration #  3     ecut=    60.00 Ry     beta= 0.70
     Davidson diagonalization with overlap
     ethr =  6.80E-11,  avg # of iterations =  2.2

     negative rho (up, down):  4.846E-04 0.000E+00

     total cpu time spent up to now is     4972.3 secs

     total energy              =    -176.32086131 Ry
     estimated scf accuracy    <          6.8E-09 Ry

     iteration #  4     ecut=    60.00 Ry     beta= 0.70
     Davidson diagonalization with overlap
     ethr =  2.11E-11,  avg # of iterations =  2.1

     negative rho (up, down):  4.846E-04 0.000E+00

     total cpu time spent up to now is     4977.7 secs

     total energy              =    -176.32086131 Ry
     estimated scf accuracy    <          2.3E-10 Ry

     iteration #  5     ecut=    60.00 Ry     beta= 0.70
     Davidson diagonalization with overlap
     ethr =  7.06E-13,  avg # of iterations =  3.1

     negative rho (up, down):  4.846E-04 0.000E+00

     total cpu time spent up to now is     4983.7 secs

     total energy              =    -176.32086131 Ry
     estimated scf accuracy    <          1.0E-10 Ry

     iteration #  6     ecut=    60.00 Ry     beta= 0.70
     Davidson diagonalization with overlap
     ethr =  3.25E-13,  avg # of iterations =  2.9

     negative rho (up, down):  4.846E-04 0.000E+00

     total cpu time spent up to now is     4989.4 secs

     End of self-consistent calculation

          k = 0.0000 0.0000 0.0000 ( 18047 PWs)   bands (ev):

   -24.6495 -24.2324 -23.4474 -23.0837 -12.0263 -11.8854 -11.8761 -11.8133
   -10.1099  -9.0448  -7.5407  -7.0156  -6.4288  -6.4097  -6.3231  -6.1818

          k =-0.0153 0.2863 0.0000 ( 18132 PWs)   bands (ev):

   -24.5134 -24.1006 -23.6180 -23.2480 -12.1505 -12.1041 -11.6428 -11.5785
    -9.8793  -8.9617  -7.7405  -7.3447  -6.5417  -6.4422  -6.2125  -6.1010

          k = 0.0307-0.5725 0.0000 ( 18166 PWs)   bands (ev):

   -24.2865 -23.9013 -23.8554 -23.5028 -12.2164 -12.2020 -11.5080 -11.4284
    -9.5707  -8.8329  -8.0020  -7.7437  -6.5956  -6.4435  -6.1214  -6.0272

          k = 0.2575-0.1328 0.0000 ( 18109 PWs)   bands (ev):

   -24.5113 -24.0987 -23.6196 -23.2495 -12.1683 -12.1251 -11.6252 -11.5768
    -9.8756  -8.9624  -7.7353  -7.3381  -6.5383  -6.4412  -6.2069  -6.1019

          k = 0.2421 0.1535 0.0000 ( 18132 PWs)   bands (ev):

   -24.5129 -24.1057 -23.6180 -23.2424 -12.0698 -11.9207 -11.8939 -11.6824
    -9.7766  -8.8607  -7.9017  -7.3996  -6.4055  -6.3161  -6.2424  -6.2244

          k = 0.2882-0.7053 0.0000 ( 18147 PWs)   bands (ev):

   -24.2854 -23.9202 -23.8477 -23.4915 -12.1886 -12.1464 -11.6292 -11.4860
    -9.4069  -8.6176  -8.2719  -7.8557  -6.5088  -6.3954  -6.1182  -6.0567

          k = 0.2728-0.4190 0.0000 ( 18128 PWs)   bands (ev):

   -24.2826 -23.9019 -23.8541 -23.5064 -12.2377 -12.2326 -11.4838 -11.4242
    -9.5448  -8.7998  -8.0202  -7.7911  -6.5770  -6.4494  -6.0877  -6.0335

          k =-0.5150 0.2656 0.0000 ( 18184 PWs)   bands (ev):

   -24.2779 -23.9035 -23.8521 -23.5106 -12.2481 -12.2267 -11.4957 -11.4232
    -9.5696  -8.8388  -7.9877  -7.7190  -6.5887  -6.4438  -6.1110  -6.0260

          k =-0.5303 0.5518 0.0000 ( 18128 PWs)   bands (ev):

   -24.2810 -23.9206 -23.8472 -23.4952 -12.2045 -12.1624 -11.6204 -11.4809
    -9.4074  -8.6251  -8.2636  -7.8430  -6.5071  -6.3936  -6.1108  -6.0573

          k =-0.4843-0.3070 0.0000 ( 18166 PWs)   bands (ev):

   -24.2830 -23.9392 -23.8399 -23.4819 -12.1129 -11.9483 -11.8920 -11.5833
    -9.2224  -8.6906  -8.1715  -8.0355  -6.3634  -6.2985  -6.1921  -6.1736

     highest occupied level (ev):    -6.0260

!    total energy              =    -176.32086131 Ry
     estimated scf accuracy    <          2.5E-12 Ry

     convergence has been achieved in   6 iterations

     negative rho (up, down):  4.846E-04 0.000E+00

     Forces acting on atoms (cartesian axes, Ry/au):

     atom    1 type  1   force =    -0.00003733   -0.00001005   -0.00001866
     atom    2 type  1   force =     0.00000189    0.00001987    0.00008536
     atom    3 type  1   force =    -0.00005142    0.00004053    0.00000067
     atom    4 type  1   force =    -0.00001295   -0.00002692    0.00002862
     atom    5 type  1   force =    -0.00004168   -0.00002130    0.00002682
     atom    6 type  1   force =     0.00001607   -0.00006693    0.00001566
     atom    7 type  1   force =    -0.00001809    0.00017060   -0.00003510
     atom    8 type  1   force =    -0.00010206    0.00003600    0.00001121
     atom    9 type  2   force =     0.00001068   -0.00000253   -0.00007016
     atom   10 type  2   force =     0.00005632    0.00001989   -0.00001564
     atom   11 type  2   force =     0.00001936   -0.00005362   -0.00004193
     atom   12 type  2   force =     0.00015922   -0.00010554    0.00001317

     Total force =     0.000341     Total SCF correction =     0.000001

     Entering Dynamics:    iteration =    81

     <vel(dt)|acc(dt)> =   0.99684442

ATOMIC_POSITIONS (angstrom)
H             4.4730997889        3.7432036031       11.2230106751
H             5.3205707780        4.3029511862       10.0180475762
H             3.2972542708        1.1585224891        8.0890847719
H             3.1457562265        2.8657713672        9.3217204453
H             3.9933796763        3.4256165646        8.1169807852
H             6.3316598837        3.9836409988        8.0944973900
H             3.0064663505        1.8155729198       11.2506597473
H             2.1347019983        3.1851005424       11.2457610879
O             5.2903523276        4.2796580126       11.0189619013
O             3.1759341078        2.8893057218        8.3208834875
O             5.4274958649        4.3713632902        8.2651759387
O             3.0387151775        2.7974000622       11.0749022716



     Writing config-only to output data dir ./output/f-BH.save/
     NEW-OLD atomic charge density approx. for the potential

     negative rho (up, down):  4.846E-04 0.000E+00

     total cpu time spent up to now is     5002.2 secs

     per-process dynamical memory:   210.3 Mb

     Self-consistent Calculation

     iteration #  1     ecut=    60.00 Ry     beta= 0.70
     Davidson diagonalization with overlap
     ethr =  1.00E-06,  avg # of iterations =  2.0

     Threshold (ethr) on eigenvalues was too large:
     Diagonalizing with lowered threshold

     Davidson diagonalization with overlap
     ethr =  1.61E-09,  avg # of iterations =  3.5

     negative rho (up, down):  4.846E-04 0.000E+00

     total cpu time spent up to now is     5014.2 secs

     total energy              =    -176.32086136 Ry
     estimated scf accuracy    <       0.00000075 Ry

     iteration #  2     ecut=    60.00 Ry     beta= 0.70
     Davidson diagonalization with overlap
     ethr =  2.36E-09,  avg # of iterations =  2.0

     negative rho (up, down):  4.846E-04 0.000E+00

     total cpu time spent up to now is     5019.4 secs

     total energy              =    -176.32086144 Ry
     estimated scf accuracy    <       0.00000005 Ry

     iteration #  3     ecut=    60.00 Ry     beta= 0.70
     Davidson diagonalization with overlap
     ethr =  1.69E-10,  avg # of iterations =  2.2

     negative rho (up, down):  4.846E-04 0.000E+00

     total cpu time spent up to now is     5025.0 secs

     total energy              =    -176.32086145 Ry
     estimated scf accuracy    <       0.00000002 Ry

     iteration #  4     ecut=    60.00 Ry     beta= 0.70
     Davidson diagonalization with overlap
     ethr =  5.46E-11,  avg # of iterations =  2.1

     negative rho (up, down):  4.846E-04 0.000E+00

     total cpu time spent up to now is     5030.4 secs

     total energy              =    -176.32086145 Ry
     estimated scf accuracy    <          6.1E-10 Ry

     iteration #  5     ecut=    60.00 Ry     beta= 0.70
     Davidson diagonalization with overlap
     ethr =  1.90E-12,  avg # of iterations =  2.9

     negative rho (up, down):  4.846E-04 0.000E+00

     total cpu time spent up to now is     5036.3 secs

     total energy              =    -176.32086145 Ry
     estimated scf accuracy    <          2.4E-10 Ry

     iteration #  6     ecut=    60.00 Ry     beta= 0.70
     Davidson diagonalization with overlap
     ethr =  7.44E-13,  avg # of iterations =  2.3

     negative rho (up, down):  4.846E-04 0.000E+00

     total cpu time spent up to now is     5042.0 secs

     End of self-consistent calculation

          k = 0.0000 0.0000 0.0000 ( 18047 PWs)   bands (ev):

   -24.6491 -24.2319 -23.4473 -23.0833 -12.0263 -11.8851 -11.8753 -11.8125
   -10.1100  -9.0449  -7.5405  -7.0151  -6.4281  -6.4097  -6.3225  -6.1816

          k =-0.0153 0.2863 0.0000 ( 18132 PWs)   bands (ev):

   -24.5130 -24.1001 -23.6179 -23.2476 -12.1501 -12.1036 -11.6423 -11.5786
    -9.8790  -8.9616  -7.7403  -7.3442  -6.5414  -6.4419  -6.2121  -6.1007

          k = 0.0307-0.5725 0.0000 ( 18166 PWs)   bands (ev):

   -24.2862 -23.9005 -23.8555 -23.5025 -12.2160 -12.2012 -11.5078 -11.4288
    -9.5702  -8.8323  -8.0020  -7.7433  -6.5952  -6.4433  -6.1210  -6.0269

          k = 0.2575-0.1328 0.0000 ( 18109 PWs)   bands (ev):

   -24.5110 -24.0982 -23.6194 -23.2491 -12.1677 -12.1247 -11.6251 -11.5761
    -9.8757  -8.9625  -7.7348  -7.3374  -6.5383  -6.4408  -6.2064  -6.1015

          k = 0.2421 0.1535 0.0000 ( 18132 PWs)   bands (ev):

   -24.5126 -24.1051 -23.6179 -23.2420 -12.0697 -11.9204 -11.8934 -11.6815
    -9.7765  -8.8607  -7.9013  -7.3991  -6.4055  -6.3154  -6.2419  -6.2243

          k = 0.2882-0.7053 0.0000 ( 18147 PWs)   bands (ev):

   -24.2850 -23.9194 -23.8479 -23.4912 -12.1883 -12.1458 -11.6291 -11.4857
    -9.4066  -8.6173  -8.2716  -7.8554  -6.5085  -6.3952  -6.1178  -6.0563

          k = 0.2728-0.4190 0.0000 ( 18128 PWs)   bands (ev):

   -24.2824 -23.9011 -23.8542 -23.5059 -12.2369 -12.2323 -11.4838 -11.4241
    -9.5447  -8.7996  -8.0198  -7.7904  -6.5768  -6.4491  -6.0873  -6.0331

          k =-0.5150 0.2656 0.0000 ( 18184 PWs)   bands (ev):

   -24.2778 -23.9026 -23.8523 -23.5101 -12.2474 -12.2265 -11.4958 -11.4227
    -9.5700  -8.8389  -7.9869  -7.7181  -6.5887  -6.4435  -6.1105  -6.0255

          k =-0.5303 0.5518 0.0000 ( 18128 PWs)   bands (ev):

   -24.2807 -23.9197 -23.8473 -23.4948 -12.2041 -12.1619 -11.6204 -11.4803
    -9.4077  -8.6252  -8.2629  -7.8423  -6.5070  -6.3934  -6.1102  -6.0568

          k =-0.4843-0.3070 0.0000 ( 18166 PWs)   bands (ev):

   -24.2825 -23.9383 -23.8401 -23.4817 -12.1128 -11.9483 -11.8912 -11.5824
    -9.2224  -8.6903  -8.1713  -8.0351  -6.3634  -6.2986  -6.1914  -6.1730

     highest occupied level (ev):    -6.0255

!    total energy              =    -176.32086145 Ry
     estimated scf accuracy    <          3.5E-12 Ry

     convergence has been achieved in   6 iterations

     negative rho (up, down):  4.846E-04 0.000E+00

     Forces acting on atoms (cartesian axes, Ry/au):

     atom    1 type  1   force =    -0.00003202   -0.00000285   -0.00001147
     atom    2 type  1   force =     0.00000804    0.00003560    0.00008770
     atom    3 type  1   force =    -0.00005637    0.00007114    0.00001799
     atom    4 type  1   force =    -0.00002513   -0.00002492    0.00002194
     atom    5 type  1   force =    -0.00005589   -0.00000845    0.00001503
     atom    6 type  1   force =     0.00001202   -0.00005391    0.00002751
     atom    7 type  1   force =    -0.00004835    0.00019693   -0.00003063
     atom    8 type  1   force =    -0.00013006    0.00003250   -0.00001242
     atom    9 type  2   force =     0.00002843   -0.00000624   -0.00005250
     atom   10 type  2   force =     0.00005067    0.00002492   -0.00004026
     atom   11 type  2   force =     0.00006296   -0.00009965   -0.00006219
     atom   12 type  2   force =     0.00018570   -0.00016508    0.00003931

     Total force =     0.000421     Total SCF correction =     0.000002

     Entering Dynamics:    iteration =    82

     <vel(dt)|acc(dt)> =   0.99051386

ATOMIC_POSITIONS (angstrom)
H             4.4731138242        3.7441685031       11.2229751851
H             5.3206014092        4.3031748104       10.0177733239
H             3.2970436299        1.1578757961        8.0889406436
H             3.1456590340        2.8654524265        9.3220198501
H             3.9933266479        3.4246994471        8.1170904167
H             6.3313530653        3.9827832407        8.0943584119
H             3.0067608209        1.8163675059       11.2505581263
H             2.1349547296        3.1858275858       11.2460854605
O             5.2903812022        4.2804962678       11.0187120888
O             3.1758907378        2.8884622057        8.3211491770
O             5.4273004223        4.3706100744        8.2649545975
O             3.0390009275        2.7981888947       11.0750687965



     Writing config-only to output data dir ./output/f-BH.save/
     NEW-OLD atomic charge density approx. for the potential

     negative rho (up, down):  4.845E-04 0.000E+00

     total cpu time spent up to now is     5054.8 secs

     per-process dynamical memory:   216.8 Mb

     Self-consistent Calculation

     iteration #  1     ecut=    60.00 Ry     beta= 0.70
     Davidson diagonalization with overlap
     ethr =  1.00E-06,  avg # of iterations =  2.0

     Threshold (ethr) on eigenvalues was too large:
     Diagonalizing with lowered threshold

     Davidson diagonalization with overlap
     ethr =  2.78E-09,  avg # of iterations =  4.0

     negative rho (up, down):  4.845E-04 0.000E+00

     total cpu time spent up to now is     5066.9 secs

     total energy              =    -176.32086143 Ry
     estimated scf accuracy    <       0.00000131 Ry

     iteration #  2     ecut=    60.00 Ry     beta= 0.70
     Davidson diagonalization with overlap
     ethr =  4.10E-09,  avg # of iterations =  2.0

     negative rho (up, down):  4.845E-04 0.000E+00

     total cpu time spent up to now is     5071.9 secs

     total energy              =    -176.32086157 Ry
     estimated scf accuracy    <       0.00000008 Ry

     iteration #  3     ecut=    60.00 Ry     beta= 0.70
     Davidson diagonalization with overlap
     ethr =  2.40E-10,  avg # of iterations =  2.2

     negative rho (up, down):  4.845E-04 0.000E+00

     total cpu time spent up to now is     5077.5 secs

     total energy              =    -176.32086158 Ry
     estimated scf accuracy    <       0.00000002 Ry

     iteration #  4     ecut=    60.00 Ry     beta= 0.70
     Davidson diagonalization with overlap
     ethr =  6.57E-11,  avg # of iterations =  2.5

     negative rho (up, down):  4.845E-04 0.000E+00

     total cpu time spent up to now is     5083.1 secs

     total energy              =    -176.32086158 Ry
     estimated scf accuracy    <          1.4E-09 Ry

     iteration #  5     ecut=    60.00 Ry     beta= 0.70
     Davidson diagonalization with overlap
     ethr =  4.26E-12,  avg # of iterations =  2.0

     negative rho (up, down):  4.845E-04 0.000E+00

     total cpu time spent up to now is     5088.3 secs

     total energy              =    -176.32086158 Ry
     estimated scf accuracy    <          2.5E-10 Ry

     iteration #  6     ecut=    60.00 Ry     beta= 0.70
     Davidson diagonalization with overlap
     ethr =  7.83E-13,  avg # of iterations =  3.2

     negative rho (up, down):  4.845E-04 0.000E+00

     total cpu time spent up to now is     5094.1 secs

     End of self-consistent calculation

          k = 0.0000 0.0000 0.0000 ( 18047 PWs)   bands (ev):

   -24.6489 -24.2315 -23.4473 -23.0830 -12.0263 -11.8848 -11.8748 -11.8119
   -10.1099  -9.0453  -7.5402  -7.0147  -6.4276  -6.4097  -6.3222  -6.1814

          k =-0.0153 0.2863 0.0000 ( 18132 PWs)   bands (ev):

   -24.5128 -24.0997 -23.6179 -23.2474 -12.1497 -12.1030 -11.6419 -11.5789
    -9.8785  -8.9616  -7.7401  -7.3438  -6.5411  -6.4416  -6.2118  -6.1006

          k = 0.0307-0.5725 0.0000 ( 18166 PWs)   bands (ev):

   -24.2859 -23.9000 -23.8555 -23.5022 -12.2157 -12.2005 -11.5077 -11.4294
    -9.5693  -8.8318  -8.0022  -7.7431  -6.5947  -6.4432  -6.1207  -6.0267

          k = 0.2575-0.1328 0.0000 ( 18109 PWs)   bands (ev):

   -24.5108 -24.0978 -23.6193 -23.2488 -12.1672 -12.1245 -11.6252 -11.5756
    -9.8757  -8.9629  -7.7343  -7.3368  -6.5383  -6.4405  -6.2061  -6.1012

          k = 0.2421 0.1535 0.0000 ( 18132 PWs)   bands (ev):

   -24.5123 -24.1047 -23.6179 -23.2418 -12.0697 -11.9203 -11.8929 -11.6808
    -9.7764  -8.8610  -7.9010  -7.3988  -6.4055  -6.3149  -6.2416  -6.2242

          k = 0.2882-0.7053 0.0000 ( 18147 PWs)   bands (ev):

   -24.2847 -23.9188 -23.8480 -23.4910 -12.1880 -12.1452 -11.6291 -11.4856
    -9.4060  -8.6171  -8.2714  -7.8553  -6.5081  -6.3951  -6.1175  -6.0562

          k = 0.2728-0.4190 0.0000 ( 18128 PWs)   bands (ev):

   -24.2822 -23.9006 -23.8542 -23.5055 -12.2361 -12.2322 -11.4839 -11.4242
    -9.5444  -8.7995  -8.0194  -7.7899  -6.5766  -6.4488  -6.0869  -6.0329

          k =-0.5150 0.2656 0.0000 ( 18184 PWs)   bands (ev):

   -24.2777 -23.9020 -23.8524 -23.5096 -12.2466 -12.2265 -11.4961 -11.4224
    -9.5703  -8.8394  -7.9860  -7.7173  -6.5887  -6.4432  -6.1101  -6.0252

          k =-0.5303 0.5518 0.0000 ( 18128 PWs)   bands (ev):

   -24.2805 -23.9191 -23.8475 -23.4945 -12.2039 -12.1615 -11.6204 -11.4798
    -9.4078  -8.6256  -8.2621  -7.8417  -6.5070  -6.3933  -6.1098  -6.0565

          k =-0.4843-0.3070 0.0000 ( 18166 PWs)   bands (ev):

   -24.2822 -23.9377 -23.8403 -23.4815 -12.1128 -11.9484 -11.8905 -11.5817
    -9.2222  -8.6901  -8.1712  -8.0348  -6.3632  -6.2987  -6.1909  -6.1727

     highest occupied level (ev):    -6.0252

!    total energy              =    -176.32086158 Ry
     estimated scf accuracy    <          1.4E-11 Ry

     convergence has been achieved in   6 iterations

     negative rho (up, down):  4.845E-04 0.000E+00

     Forces acting on atoms (cartesian axes, Ry/au):

     atom    1 type  1   force =    -0.00003464   -0.00002069   -0.00000181
     atom    2 type  1   force =     0.00001683    0.00004436    0.00009896
     atom    3 type  1   force =    -0.00003313   -0.00003872    0.00004541
     atom    4 type  1   force =    -0.00002220   -0.00002142   -0.00000830
     atom    5 type  1   force =    -0.00004353    0.00001270    0.00000267
     atom    6 type  1   force =     0.00009869   -0.00005147    0.00001025
     atom    7 type  1   force =    -0.00005027    0.00009468   -0.00000089
     atom    8 type  1   force =    -0.00007099    0.00001486   -0.00005320
     atom    9 type  2   force =     0.00005878   -0.00000910   -0.00004894
     atom   10 type  2   force =     0.00002047    0.00000733   -0.00002970
     atom   11 type  2   force =    -0.00002512    0.00002654   -0.00006592
     atom   12 type  2   force =     0.00008510   -0.00005906    0.00005148

     Total force =     0.000283     Total SCF correction =     0.000004

     Entering Dynamics:    iteration =    83

     <vel(dt)|acc(dt)> =   0.90697619

ATOMIC_POSITIONS (angstrom)
H             4.4731874848        3.7451883492       11.2230543663
H             5.3207174407        4.3036281343       10.0177974420
H             3.2966919497        1.1572357030        8.0891371871
H             3.1453979064        2.8651077342        9.3221189313
H             3.9930710387        3.4239069476        8.1170149401
H             6.3315074133        3.9817877944        8.0942779371
H             3.0066091656        1.8171815596       11.2505685918
H             2.1350510626        3.1863536624       11.2460732391
O             5.2906744777        4.2812618909       11.0184338383
O             3.1758254124        2.8876695718        8.3212157356
O             5.4271785949        4.3699726485        8.2644770318
O             3.0394745040        2.7988127623       11.0755168373



     Writing config-only to output data dir ./output/f-BH.save/
     NEW-OLD atomic charge density approx. for the potential

     negative rho (up, down):  4.844E-04 0.000E+00

     total cpu time spent up to now is     5107.0 secs

     per-process dynamical memory:   210.3 Mb

     Self-consistent Calculation

     iteration #  1     ecut=    60.00 Ry     beta= 0.70
     Davidson diagonalization with overlap
     ethr =  1.00E-06,  avg # of iterations =  2.0

     Threshold (ethr) on eigenvalues was too large:
     Diagonalizing with lowered threshold

     Davidson diagonalization with overlap
     ethr =  2.93E-09,  avg # of iterations =  3.5

     negative rho (up, down):  4.844E-04 0.000E+00

     total cpu time spent up to now is     5118.9 secs

     total energy              =    -176.32086112 Ry
     estimated scf accuracy    <       0.00000133 Ry

     iteration #  2     ecut=    60.00 Ry     beta= 0.70
     Davidson diagonalization with overlap
     ethr =  4.16E-09,  avg # of iterations =  2.0

     negative rho (up, down):  4.844E-04 0.000E+00

     total cpu time spent up to now is     5124.2 secs

     total energy              =    -176.32086127 Ry
     estimated scf accuracy    <       0.00000008 Ry

     iteration #  3     ecut=    60.00 Ry     beta= 0.70
     Davidson diagonalization with overlap
     ethr =  2.41E-10,  avg # of iterations =  2.0

     negative rho (up, down):  4.844E-04 0.000E+00

     total cpu time spent up to now is     5129.8 secs

     total energy              =    -176.32086128 Ry
     estimated scf accuracy    <       0.00000002 Ry

     iteration #  4     ecut=    60.00 Ry     beta= 0.70
     Davidson diagonalization with overlap
     ethr =  5.35E-11,  avg # of iterations =  2.0

     negative rho (up, down):  4.844E-04 0.000E+00

     total cpu time spent up to now is     5135.4 secs

     total energy              =    -176.32086128 Ry
     estimated scf accuracy    <          1.3E-09 Ry

     iteration #  5     ecut=    60.00 Ry     beta= 0.70
     Davidson diagonalization with overlap
     ethr =  3.93E-12,  avg # of iterations =  2.0

     negative rho (up, down):  4.844E-04 0.000E+00

     total cpu time spent up to now is     5140.6 secs

     total energy              =    -176.32086128 Ry
     estimated scf accuracy    <          1.7E-10 Ry

     iteration #  6     ecut=    60.00 Ry     beta= 0.70
     Davidson diagonalization with overlap
     ethr =  5.31E-13,  avg # of iterations =  2.0

     negative rho (up, down):  4.844E-04 0.000E+00

     total cpu time spent up to now is     5146.2 secs

     End of self-consistent calculation

          k = 0.0000 0.0000 0.0000 ( 18047 PWs)   bands (ev):

   -24.6496 -24.2323 -23.4479 -23.0837 -12.0262 -11.8849 -11.8767 -11.8127
   -10.1095  -9.0472  -7.5397  -7.0154  -6.4287  -6.4097  -6.3236  -6.1814

          k =-0.0153 0.2863 0.0000 ( 18132 PWs)   bands (ev):

   -24.5134 -24.1005 -23.6185 -23.2480 -12.1496 -12.1032 -11.6432 -11.5805
    -9.8781  -8.9634  -7.7397  -7.3446  -6.5413  -6.4422  -6.2128  -6.1012

          k = 0.0307-0.5725 0.0000 ( 18166 PWs)   bands (ev):

   -24.2865 -23.9020 -23.8549 -23.5029 -12.2155 -12.2003 -11.5091 -11.4314
    -9.5688  -8.8332  -8.0020  -7.7440  -6.5947  -6.4434  -6.1217  -6.0276

          k = 0.2575-0.1328 0.0000 ( 18109 PWs)   bands (ev):

   -24.5115 -24.0986 -23.6198 -23.2494 -12.1676 -12.1254 -11.6258 -11.5766
    -9.8751  -8.9646  -7.7341  -7.3379  -6.5387  -6.4409  -6.2068  -6.1015

          k = 0.2421 0.1535 0.0000 ( 18132 PWs)   bands (ev):

   -24.5130 -24.1055 -23.6184 -23.2424 -12.0696 -11.9208 -11.8938 -11.6824
    -9.7759  -8.8627  -7.9006  -7.3995  -6.4055  -6.3160  -6.2429  -6.2242

          k = 0.2882-0.7053 0.0000 ( 18147 PWs)   bands (ev):

   -24.2854 -23.9207 -23.8474 -23.4917 -12.1878 -12.1454 -11.6303 -11.4875
    -9.4055  -8.6186  -8.2712  -7.8562  -6.5080  -6.3953  -6.1186  -6.0572

          k = 0.2728-0.4190 0.0000 ( 18128 PWs)   bands (ev):

   -24.2830 -23.9025 -23.8537 -23.5061 -12.2364 -12.2325 -11.4849 -11.4258
    -9.5437  -8.8009  -8.0195  -7.7910  -6.5767  -6.4489  -6.0877  -6.0336

          k =-0.5150 0.2656 0.0000 ( 18184 PWs)   bands (ev):

   -24.2786 -23.9037 -23.8521 -23.5099 -12.2471 -12.2274 -11.4967 -11.4236
    -9.5694  -8.8408  -7.9861  -7.7187  -6.5888  -6.4432  -6.1107  -6.0258

          k =-0.5303 0.5518 0.0000 ( 18128 PWs)   bands (ev):

   -24.2813 -23.9209 -23.8469 -23.4950 -12.2043 -12.1621 -11.6212 -11.4812
    -9.4071  -8.6269  -8.2622  -7.8428  -6.5071  -6.3934  -6.1106  -6.0574

          k =-0.4843-0.3070 0.0000 ( 18166 PWs)   bands (ev):

   -24.2829 -23.9395 -23.8398 -23.4822 -12.1127 -11.9483 -11.8920 -11.5836
    -9.2217  -8.6907  -8.1718  -8.0355  -6.3630  -6.2989  -6.1921  -6.1740

     highest occupied level (ev):    -6.0258

!    total energy              =    -176.32086128 Ry
     estimated scf accuracy    <          3.6E-12 Ry

     convergence has been achieved in   6 iterations

     negative rho (up, down):  4.844E-04 0.000E+00

     Forces acting on atoms (cartesian axes, Ry/au):

     atom    1 type  1   force =     0.00013683    0.00002373   -0.00005552
     atom    2 type  1   force =     0.00002481    0.00002328   -0.00034369
     atom    3 type  1   force =     0.00009503    0.00009428   -0.00007077
     atom    4 type  1   force =     0.00004225   -0.00000197   -0.00007259
     atom    5 type  1   force =     0.00013639    0.00012238   -0.00002451
     atom    6 type  1   force =    -0.00030709    0.00024017    0.00004822
     atom    7 type  1   force =     0.00007789   -0.00026785    0.00007328
     atom    8 type  1   force =     0.00023758   -0.00000765   -0.00010812
     atom    9 type  2   force =    -0.00012456   -0.00013185    0.00044740
     atom   10 type  2   force =    -0.00022093   -0.00006997    0.00009970
     atom   11 type  2   force =     0.00027620   -0.00041247   -0.00002019
     atom   12 type  2   force =    -0.00037441    0.00038792    0.00002677

     Total force =     0.001160     Total SCF correction =     0.000003

     Entering Dynamics:    iteration =    84

     <vel(dt)|acc(dt)> =  -0.94564285

ATOMIC_POSITIONS (angstrom)
H             4.4731671490        3.7447269598       11.2230228568
H             5.3207023001        4.3035196769       10.0178600461
H             3.2967943873        1.1575456443        8.0891447819
H             3.1454670475        2.8652332225        9.3220117544
H             3.9931345272        3.4243334627        8.1170079013
H             6.3315440575        3.9822022054        8.0943546101
H             3.0065447079        1.8168660419       11.2505964914
H             2.1349586922        3.1860742024       11.2459374941
O             5.2906158930        4.2808520980       11.0186185685
O             3.1758240694        2.8880337515        8.3211389872
O             5.4273171906        4.3701916079        8.2645654928
O             3.0393164290        2.7985278848       11.0754270933



     Writing config-only to output data dir ./output/f-BH.save/
     NEW-OLD atomic charge density approx. for the potential

     negative rho (up, down):  4.844E-04 0.000E+00

     total cpu time spent up to now is     5159.1 secs

     per-process dynamical memory:   216.8 Mb

     Self-consistent Calculation

     iteration #  1     ecut=    60.00 Ry     beta= 0.70
     Davidson diagonalization with overlap
     ethr =  1.00E-06,  avg # of iterations =  2.0

     Threshold (ethr) on eigenvalues was too large:
     Diagonalizing with lowered threshold

     Davidson diagonalization with overlap
     ethr =  5.03E-10,  avg # of iterations =  4.2

     negative rho (up, down):  4.844E-04 0.000E+00

     total cpu time spent up to now is     5171.3 secs

     total energy              =    -176.32086158 Ry
     estimated scf accuracy    <       0.00000026 Ry

     iteration #  2     ecut=    60.00 Ry     beta= 0.70
     Davidson diagonalization with overlap
     ethr =  8.01E-10,  avg # of iterations =  2.0

     negative rho (up, down):  4.844E-04 0.000E+00

     total cpu time spent up to now is     5176.7 secs

     total energy              =    -176.32086161 Ry
     estimated scf accuracy    <       0.00000002 Ry

     iteration #  3     ecut=    60.00 Ry     beta= 0.70
     Davidson diagonalization with overlap
     ethr =  5.17E-11,  avg # of iterations =  2.2

     negative rho (up, down):  4.844E-04 0.000E+00

     total cpu time spent up to now is     5182.4 secs

     total energy              =    -176.32086161 Ry
     estimated scf accuracy    <          4.6E-09 Ry

     iteration #  4     ecut=    60.00 Ry     beta= 0.70
     Davidson diagonalization with overlap
     ethr =  1.45E-11,  avg # of iterations =  2.3

     negative rho (up, down):  4.844E-04 0.000E+00

     total cpu time spent up to now is     5188.0 secs

     total energy              =    -176.32086161 Ry
     estimated scf accuracy    <          2.8E-10 Ry

     iteration #  5     ecut=    60.00 Ry     beta= 0.70
     Davidson diagonalization with overlap
     ethr =  8.61E-13,  avg # of iterations =  2.0

     negative rho (up, down):  4.844E-04 0.000E+00

     total cpu time spent up to now is     5193.0 secs

     End of self-consistent calculation

          k = 0.0000 0.0000 0.0000 ( 18047 PWs)   bands (ev):

   -24.6496 -24.2324 -23.4479 -23.0838 -12.0266 -11.8851 -11.8765 -11.8129
   -10.1097  -9.0469  -7.5399  -7.0156  -6.4288  -6.4099  -6.3236  -6.1816

          k =-0.0153 0.2863 0.0000 ( 18132 PWs)   bands (ev):

   -24.5135 -24.1006 -23.6185 -23.2481 -12.1500 -12.1036 -11.6429 -11.5802
    -9.8784  -8.9632  -7.7400  -7.3448  -6.5414  -6.4423  -6.2129  -6.1013

          k = 0.0307-0.5725 0.0000 ( 18166 PWs)   bands (ev):

   -24.2867 -23.9018 -23.8553 -23.5030 -12.2160 -12.2009 -11.5087 -11.4309
    -9.5692  -8.8334  -8.0021  -7.7441  -6.5949  -6.4435  -6.1218  -6.0277

          k = 0.2575-0.1328 0.0000 ( 18109 PWs)   bands (ev):

   -24.5116 -24.0987 -23.6199 -23.2495 -12.1678 -12.1254 -11.6260 -11.5766
    -9.8754  -8.9643  -7.7343  -7.3381  -6.5387  -6.4410  -6.2070  -6.1018

          k = 0.2421 0.1535 0.0000 ( 18132 PWs)   bands (ev):

   -24.5131 -24.1056 -23.6185 -23.2426 -12.0699 -11.9208 -11.8939 -11.6823
    -9.7762  -8.8625  -7.9008  -7.3997  -6.4057  -6.3161  -6.2429  -6.2244

          k = 0.2882-0.7053 0.0000 ( 18147 PWs)   bands (ev):

   -24.2855 -23.9205 -23.8478 -23.4918 -12.1883 -12.1458 -11.6301 -11.4871
    -9.4058  -8.6186  -8.2714  -7.8562  -6.5083  -6.3955  -6.1186  -6.0572

          k = 0.2728-0.4190 0.0000 ( 18128 PWs)   bands (ev):

   -24.2830 -23.9023 -23.8541 -23.5063 -12.2367 -12.2327 -11.4847 -11.4255
    -9.5441  -8.8009  -8.0197  -7.7912  -6.5768  -6.4490  -6.0879  -6.0338

          k =-0.5150 0.2656 0.0000 ( 18184 PWs)   bands (ev):

   -24.2785 -23.9036 -23.8524 -23.5103 -12.2472 -12.2273 -11.4967 -11.4235
    -9.5697  -8.8406  -7.9864  -7.7188  -6.5890  -6.4434  -6.1109  -6.0261

          k =-0.5303 0.5518 0.0000 ( 18128 PWs)   bands (ev):

   -24.2813 -23.9207 -23.8473 -23.4952 -12.2044 -12.1622 -11.6212 -11.4811
    -9.4074  -8.6268  -8.2624  -7.8430  -6.5072  -6.3935  -6.1108  -6.0576

          k =-0.4843-0.3070 0.0000 ( 18166 PWs)   bands (ev):

   -24.2830 -23.9393 -23.8401 -23.4823 -12.1130 -11.9486 -11.8918 -11.5834
    -9.2220  -8.6907  -8.1719  -8.0356  -6.3633  -6.2990  -6.1922  -6.1740

     highest occupied level (ev):    -6.0261

!    total energy              =    -176.32086161 Ry
     estimated scf accuracy    <          4.2E-11 Ry

     convergence has been achieved in   5 iterations

     negative rho (up, down):  4.844E-04 0.000E+00

     Forces acting on atoms (cartesian axes, Ry/au):

     atom    1 type  1   force =     0.00006953   -0.00000444   -0.00002957
     atom    2 type  1   force =     0.00002051    0.00001325   -0.00015408
     atom    3 type  1   force =     0.00007124   -0.00004373   -0.00003576
     atom    4 type  1   force =     0.00002890   -0.00000362   -0.00003107
     atom    5 type  1   force =     0.00005667    0.00005313   -0.00000527
     atom    6 type  1   force =    -0.00009283    0.00011724    0.00000615
     atom    7 type  1   force =     0.00005754   -0.00018419    0.00006124
     atom    8 type  1   force =     0.00014042    0.00001351   -0.00007350
     atom    9 type  2   force =    -0.00005628   -0.00006559    0.00021257
     atom   10 type  2   force =    -0.00010365   -0.00003302    0.00004247
     atom   11 type  2   force =     0.00005300   -0.00012788   -0.00000454
     atom   12 type  2   force =    -0.00024505    0.00026534    0.00001137

     Total force =     0.000592     Total SCF correction =     0.000007

     Entering Dynamics:    iteration =    85

     <vel(dt)|acc(dt)> =   0.88761889

ATOMIC_POSITIONS (angstrom)
H             4.4730975151        3.7441386924       11.2228847760
H             5.3206917554        4.3033612069       10.0178516555
H             3.2970044495        1.1576903767        8.0889925577
H             3.1456293793        2.8653319116        9.3219997171
H             3.9932550513        3.4247569191        8.1171320292
H             6.3314714638        3.9827164305        8.0944091627
H             3.0067212049        1.8165446933       11.2506241725
H             2.1349126997        3.1859774900       11.2458266403
O             5.2904575772        4.2803898328       11.0188778806
O             3.1758245334        2.8883976351        8.3211345117
O             5.4273327161        4.3703509862        8.2646917533
O             3.0389881050        2.7984505836       11.0752612214



     Writing config-only to output data dir ./output/f-BH.save/
     NEW-OLD atomic charge density approx. for the potential

     negative rho (up, down):  4.845E-04 0.000E+00

     total cpu time spent up to now is     5206.0 secs

     per-process dynamical memory:   210.3 Mb

     Self-consistent Calculation

     iteration #  1     ecut=    60.00 Ry     beta= 0.70
     Davidson diagonalization with overlap
     ethr =  1.00E-06,  avg # of iterations =  2.0

     Threshold (ethr) on eigenvalues was too large:
     Diagonalizing with lowered threshold

     Davidson diagonalization with overlap
     ethr =  7.41E-10,  avg # of iterations =  3.4

     negative rho (up, down):  4.845E-04 0.000E+00

     total cpu time spent up to now is     5217.7 secs

     total energy              =    -176.32086155 Ry
     estimated scf accuracy    <       0.00000038 Ry

     iteration #  2     ecut=    60.00 Ry     beta= 0.70
     Davidson diagonalization with overlap
     ethr =  1.18E-09,  avg # of iterations =  2.0

     negative rho (up, down):  4.845E-04 0.000E+00

     total cpu time spent up to now is     5223.1 secs

     total energy              =    -176.32086161 Ry
     estimated scf accuracy    <       0.00000003 Ry

     iteration #  3     ecut=    60.00 Ry     beta= 0.70
     Davidson diagonalization with overlap
     ethr =  8.06E-11,  avg # of iterations =  2.0

     negative rho (up, down):  4.845E-04 0.000E+00

     total cpu time spent up to now is     5228.8 secs

     total energy              =    -176.32086161 Ry
     estimated scf accuracy    <          6.3E-09 Ry

     iteration #  4     ecut=    60.00 Ry     beta= 0.70
     Davidson diagonalization with overlap
     ethr =  1.95E-11,  avg # of iterations =  2.0

     negative rho (up, down):  4.845E-04 0.000E+00

     total cpu time spent up to now is     5234.4 secs

     total energy              =    -176.32086162 Ry
     estimated scf accuracy    <          3.1E-10 Ry

     iteration #  5     ecut=    60.00 Ry     beta= 0.70
     Davidson diagonalization with overlap
     ethr =  9.79E-13,  avg # of iterations =  2.0

     negative rho (up, down):  4.845E-04 0.000E+00

     total cpu time spent up to now is     5239.9 secs

     End of self-consistent calculation

          k = 0.0000 0.0000 0.0000 ( 18047 PWs)   bands (ev):

   -24.6495 -24.2323 -23.4478 -23.0838 -12.0271 -11.8854 -11.8753 -11.8126
   -10.1102  -9.0462  -7.5403  -7.0156  -6.4283  -6.4104  -6.3231  -6.1820

          k =-0.0153 0.2863 0.0000 ( 18132 PWs)   bands (ev):

   -24.5134 -24.1005 -23.6183 -23.2480 -12.1506 -12.1040 -11.6420 -11.5794
    -9.8790  -8.9628  -7.7404  -7.3448  -6.5416  -6.4422  -6.2127  -6.1013

          k = 0.0307-0.5725 0.0000 ( 18166 PWs)   bands (ev):

   -24.2867 -23.9005 -23.8563 -23.5027 -12.2167 -12.2015 -11.5077 -11.4297
    -9.5699  -8.8333  -8.0023  -7.7439  -6.5951  -6.4437  -6.1216  -6.0275

          k = 0.2575-0.1328 0.0000 ( 18109 PWs)   bands (ev):

   -24.5114 -24.0985 -23.6199 -23.2496 -12.1678 -12.1251 -11.6260 -11.5760
    -9.8761  -8.9638  -7.7346  -7.3378  -6.5389  -6.4410  -6.2070  -6.1021

          k = 0.2421 0.1535 0.0000 ( 18132 PWs)   bands (ev):

   -24.5129 -24.1054 -23.6185 -23.2426 -12.0705 -11.9208 -11.8936 -11.6812
    -9.7767  -8.8620  -7.9012  -7.3998  -6.4062  -6.3156  -6.2424  -6.2248

          k = 0.2882-0.7053 0.0000 ( 18147 PWs)   bands (ev):

   -24.2854 -23.9193 -23.8487 -23.4917 -12.1890 -12.1461 -11.6293 -11.4858
    -9.4065  -8.6184  -8.2717  -7.8561  -6.5085  -6.3957  -6.1184  -6.0570

          k = 0.2728-0.4190 0.0000 ( 18128 PWs)   bands (ev):

   -24.2828 -23.9011 -23.8550 -23.5062 -12.2368 -12.2330 -11.4842 -11.4245
    -9.5449  -8.8007  -8.0198  -7.7908  -6.5771  -6.4492  -6.0878  -6.0338

          k =-0.5150 0.2656 0.0000 ( 18184 PWs)   bands (ev):

   -24.2781 -23.9026 -23.8531 -23.5105 -12.2469 -12.2271 -11.4968 -11.4227
    -9.5707  -8.8403  -7.9865  -7.7184  -6.5892  -6.4435  -6.1110  -6.0263

          k =-0.5303 0.5518 0.0000 ( 18128 PWs)   bands (ev):

   -24.2810 -23.9196 -23.8482 -23.4954 -12.2045 -12.1621 -11.6210 -11.4803
    -9.4082  -8.6266  -8.2625  -7.8427  -6.5075  -6.3937  -6.1107  -6.0576

          k =-0.4843-0.3070 0.0000 ( 18166 PWs)   bands (ev):

   -24.2827 -23.9382 -23.8411 -23.4824 -12.1136 -11.9492 -11.8908 -11.5821
    -9.2226  -8.6906  -8.1723  -8.0356  -6.3637  -6.2994  -6.1917  -6.1736

     highest occupied level (ev):    -6.0263

!    total energy              =    -176.32086162 Ry
     estimated scf accuracy    <          7.5E-11 Ry

     convergence has been achieved in   5 iterations

     negative rho (up, down):  4.845E-04 0.000E+00

     Forces acting on atoms (cartesian axes, Ry/au):

     atom    1 type  1   force =    -0.00007053   -0.00004291    0.00003108
     atom    2 type  1   force =     0.00000835    0.00000819    0.00024776
     atom    3 type  1   force =    -0.00002626   -0.00007246    0.00001861
     atom    4 type  1   force =    -0.00002092   -0.00000668   -0.00001179
     atom    5 type  1   force =    -0.00007629   -0.00004178    0.00000171
     atom    6 type  1   force =     0.00016784   -0.00010037   -0.00002311
     atom    7 type  1   force =    -0.00004586    0.00020750    0.00000373
     atom    8 type  1   force =    -0.00021536    0.00007279    0.00001769
     atom    9 type  2   force =     0.00009040    0.00007839   -0.00027540
     atom   10 type  2   force =     0.00007873    0.00003462   -0.00000758
     atom   11 type  2   force =    -0.00012503    0.00014371    0.00000495
     atom   12 type  2   force =     0.00023495   -0.00028099   -0.00000766

     Total force =     0.000698     Total SCF correction =     0.000012

     Entering Dynamics:    iteration =    86

     <vel(dt)|acc(dt)> =  -0.97260904

ATOMIC_POSITIONS (angstrom)
H             4.4731134505        3.7443022724       11.2229117588
H             5.3206986657        4.3034067260       10.0178475898
H             3.2969577408        1.1576160390        8.0890139957
H             3.1455926716        2.8652954011        9.3220111807
H             3.9932268772        3.4246266151        8.1171110998
H             6.3314766917        3.9825734316        8.0943891766
H             3.0067020038        1.8166495951       11.2506213578
H             2.1349277422        3.1860433352       11.2458591157
O             5.2904945717        4.2805276618       11.0188075743
O             3.1758174824        2.8882806971        8.3211536190
O             5.4273132974        4.3702803772        8.2646560155
O             3.0390652558        2.7985046065       11.0753035943



     Writing config-only to output data dir ./output/f-BH.save/
     NEW-OLD atomic charge density approx. for the potential

     negative rho (up, down):  4.844E-04 0.000E+00

     total cpu time spent up to now is     5252.9 secs

     per-process dynamical memory:   233.7 Mb

     Self-consistent Calculation

     iteration #  1     ecut=    60.00 Ry     beta= 0.70
     Davidson diagonalization with overlap
     ethr =  1.00E-06,  avg # of iterations =  2.0

     Threshold (ethr) on eigenvalues was too large:
     Diagonalizing with lowered threshold

     Davidson diagonalization with overlap
     ethr =  5.62E-11,  avg # of iterations =  3.9

     negative rho (up, down):  4.844E-04 0.000E+00

     total cpu time spent up to now is     5265.0 secs

     total energy              =    -176.32086172 Ry
     estimated scf accuracy    <       0.00000003 Ry

     iteration #  2     ecut=    60.00 Ry     beta= 0.70
     Davidson diagonalization with overlap
     ethr =  9.35E-11,  avg # of iterations =  2.0

     negative rho (up, down):  4.844E-04 0.000E+00

     total cpu time spent up to now is     5270.4 secs

     total energy              =    -176.32086172 Ry
     estimated scf accuracy    <          1.4E-09 Ry

     iteration #  3     ecut=    60.00 Ry     beta= 0.70
     Davidson diagonalization with overlap
     ethr =  4.46E-12,  avg # of iterations =  2.0

     negative rho (up, down):  4.844E-04 0.000E+00

     total cpu time spent up to now is     5275.8 secs

     total energy              =    -176.32086172 Ry
     estimated scf accuracy    <          2.1E-10 Ry

     iteration #  4     ecut=    60.00 Ry     beta= 0.70
     Davidson diagonalization with overlap
     ethr =  6.61E-13,  avg # of iterations =  3.1

     negative rho (up, down):  4.844E-04 0.000E+00

     total cpu time spent up to now is     5282.0 secs

     End of self-consistent calculation

          k = 0.0000 0.0000 0.0000 ( 18047 PWs)   bands (ev):

   -24.6495 -24.2323 -23.4478 -23.0837 -12.0269 -11.8853 -11.8755 -11.8126
   -10.1101  -9.0464  -7.5402  -7.0156  -6.4284  -6.4103  -6.3232  -6.1819

          k =-0.0153 0.2863 0.0000 ( 18132 PWs)   bands (ev):

   -24.5134 -24.1005 -23.6184 -23.2480 -12.1505 -12.1039 -11.6422 -11.5796
    -9.8788  -8.9629  -7.7402  -7.3447  -6.5415  -6.4422  -6.2127  -6.1013

          k = 0.0307-0.5725 0.0000 ( 18166 PWs)   bands (ev):

   -24.2867 -23.9008 -23.8561 -23.5027 -12.2165 -12.2013 -11.5079 -11.4300
    -9.5697  -8.8333  -8.0023  -7.7439  -6.5950  -6.4436  -6.1216  -6.0275

          k = 0.2575-0.1328 0.0000 ( 18109 PWs)   bands (ev):

   -24.5114 -24.0986 -23.6199 -23.2495 -12.1677 -12.1251 -11.6260 -11.5761
    -9.8759  -8.9640  -7.7345  -7.3378  -6.5388  -6.4410  -6.2070  -6.1020

          k = 0.2421 0.1535 0.0000 ( 18132 PWs)   bands (ev):

   -24.5129 -24.1054 -23.6184 -23.2425 -12.0703 -11.9207 -11.8936 -11.6814
    -9.7766  -8.8621  -7.9011  -7.3997  -6.4061  -6.3157  -6.2425  -6.2247

          k = 0.2882-0.7053 0.0000 ( 18147 PWs)   bands (ev):

   -24.2854 -23.9196 -23.8485 -23.4917 -12.1888 -12.1460 -11.6295 -11.4861
    -9.4063  -8.6185  -8.2716  -7.8561  -6.5085  -6.3956  -6.1184  -6.0570

          k = 0.2728-0.4190 0.0000 ( 18128 PWs)   bands (ev):

   -24.2828 -23.9013 -23.8548 -23.5062 -12.2367 -12.2329 -11.4844 -11.4248
    -9.5447  -8.8008  -8.0197  -7.7908  -6.5770  -6.4492  -6.0878  -6.0338

          k =-0.5150 0.2656 0.0000 ( 18184 PWs)   bands (ev):

   -24.2782 -23.9028 -23.8530 -23.5105 -12.2469 -12.2271 -11.4968 -11.4229
    -9.5705  -8.8403  -7.9864  -7.7184  -6.5892  -6.4435  -6.1110  -6.0262

          k =-0.5303 0.5518 0.0000 ( 18128 PWs)   bands (ev):

   -24.2810 -23.9198 -23.8480 -23.4954 -12.2044 -12.1621 -11.6210 -11.4804
    -9.4080  -8.6267  -8.2624  -7.8428  -6.5074  -6.3936  -6.1107  -6.0576

          k =-0.4843-0.3070 0.0000 ( 18166 PWs)   bands (ev):

   -24.2828 -23.9384 -23.8409 -23.4823 -12.1134 -11.9491 -11.8910 -11.5823
    -9.2225  -8.6906  -8.1722  -8.0355  -6.3636  -6.2994  -6.1917  -6.1736

     highest occupied level (ev):    -6.0262

!    total energy              =    -176.32086172 Ry
     estimated scf accuracy    <          5.7E-11 Ry

     convergence has been achieved in   4 iterations

     negative rho (up, down):  4.844E-04 0.000E+00

     Forces acting on atoms (cartesian axes, Ry/au):

     atom    1 type  1   force =    -0.00003544   -0.00003148    0.00001689
     atom    2 type  1   force =     0.00001084    0.00000992    0.00014859
     atom    3 type  1   force =    -0.00000865   -0.00005725    0.00000713
     atom    4 type  1   force =    -0.00001142   -0.00000647   -0.00000218
     atom    5 type  1   force =    -0.00005549   -0.00002539    0.00000192
     atom    6 type  1   force =     0.00010677   -0.00005479   -0.00001425
     atom    7 type  1   force =    -0.00002692    0.00012480    0.00001622
     atom    8 type  1   force =    -0.00013315    0.00005457   -0.00000356
     atom    9 type  2   force =     0.00005313    0.00004164   -0.00015483
     atom   10 type  2   force =     0.00004826    0.00002714   -0.00001485
     atom   11 type  2   force =    -0.00007641    0.00007667    0.00000032
     atom   12 type  2   force =     0.00012848   -0.00015936   -0.00000141

     Total force =     0.000412     Total SCF correction =     0.000006

     Entering Dynamics:    iteration =    87

     <vel(dt)|acc(dt)> =   0.99388011

ATOMIC_POSITIONS (angstrom)
H             4.4731422493        3.7445511211       11.2229462931
H             5.3207183611        4.3034863307       10.0178453442
H             3.2968926000        1.1574697745        8.0890348254
H             3.1455384679        2.8652292522        9.3220411388
H             3.9931698295        3.4244147685        8.1170865208
H             6.3314904238        3.9823474779        8.0943562163
H             3.0066818785        1.8168342817       11.2506342469
H             2.1349412211        3.1861769619       11.2458939120
O             5.2905501901        4.2807414532       11.0187043800
O             3.1758093807        2.8880996410        8.3211767879
O             5.4272751428        4.3701478278        8.2645930546
O             3.0391767058        2.7986078676       11.0753733580



     Writing config-only to output data dir ./output/f-BH.save/
     NEW-OLD atomic charge density approx. for the potential

     negative rho (up, down):  4.844E-04 0.000E+00

     total cpu time spent up to now is     5295.0 secs

     per-process dynamical memory:   210.3 Mb

     Self-consistent Calculation

     iteration #  1     ecut=    60.00 Ry     beta= 0.70
     Davidson diagonalization with overlap
     ethr =  1.00E-06,  avg # of iterations =  2.0

     Threshold (ethr) on eigenvalues was too large:
     Diagonalizing with lowered threshold

     Davidson diagonalization with overlap
     ethr =  1.54E-10,  avg # of iterations =  3.6

     negative rho (up, down):  4.844E-04 0.000E+00

     total cpu time spent up to now is     5306.9 secs

     total energy              =    -176.32086177 Ry
     estimated scf accuracy    <       0.00000008 Ry

     iteration #  2     ecut=    60.00 Ry     beta= 0.70
     Davidson diagonalization with overlap
     ethr =  2.37E-10,  avg # of iterations =  2.0

     negative rho (up, down):  4.844E-04 0.000E+00

     total cpu time spent up to now is     5312.3 secs

     total energy              =    -176.32086178 Ry
     estimated scf accuracy    <          5.8E-09 Ry

     iteration #  3     ecut=    60.00 Ry     beta= 0.70
     Davidson diagonalization with overlap
     ethr =  1.83E-11,  avg # of iterations =  2.0

     negative rho (up, down):  4.844E-04 0.000E+00

     total cpu time spent up to now is     5318.0 secs

     total energy              =    -176.32086178 Ry
     estimated scf accuracy    <          1.7E-09 Ry

     iteration #  4     ecut=    60.00 Ry     beta= 0.70
     Davidson diagonalization with overlap
     ethr =  5.32E-12,  avg # of iterations =  2.0

     negative rho (up, down):  4.844E-04 0.000E+00

     total cpu time spent up to now is     5323.5 secs

     End of self-consistent calculation

          k = 0.0000 0.0000 0.0000 ( 18047 PWs)   bands (ev):

   -24.6495 -24.2323 -23.4479 -23.0838 -12.0267 -11.8851 -11.8759 -11.8127
   -10.1099  -9.0467  -7.5400  -7.0156  -6.4285  -6.4101  -6.3233  -6.1818

          k =-0.0153 0.2863 0.0000 ( 18132 PWs)   bands (ev):

   -24.5135 -24.1005 -23.6184 -23.2481 -12.1502 -12.1037 -11.6425 -11.5799
    -9.8786  -8.9631  -7.7401  -7.3447  -6.5415  -6.4422  -6.2128  -6.1012

          k = 0.0307-0.5725 0.0000 ( 18166 PWs)   bands (ev):

   -24.2867 -23.9012 -23.8558 -23.5028 -12.2162 -12.2011 -11.5083 -11.4304
    -9.5695  -8.8334  -8.0022  -7.7440  -6.5949  -6.4436  -6.1217  -6.0276

          k = 0.2575-0.1328 0.0000 ( 18109 PWs)   bands (ev):

   -24.5115 -24.0986 -23.6199 -23.2495 -12.1677 -12.1252 -11.6260 -11.5763
    -9.8757  -8.9642  -7.7344  -7.3379  -6.5388  -6.4410  -6.2069  -6.1019

          k = 0.2421 0.1535 0.0000 ( 18132 PWs)   bands (ev):

   -24.5130 -24.1055 -23.6185 -23.2426 -12.0701 -11.9207 -11.8937 -11.6817
    -9.7764  -8.8623  -7.9010  -7.3997  -6.4059  -6.3158  -6.2426  -6.2246

          k = 0.2882-0.7053 0.0000 ( 18147 PWs)   bands (ev):

   -24.2854 -23.9199 -23.8482 -23.4917 -12.1885 -12.1458 -11.6297 -11.4865
    -9.4061  -8.6186  -8.2715  -7.8562  -6.5083  -6.3956  -6.1185  -6.0571

          k = 0.2728-0.4190 0.0000 ( 18128 PWs)   bands (ev):

   -24.2829 -23.9017 -23.8545 -23.5062 -12.2366 -12.2328 -11.4846 -11.4251
    -9.5445  -8.8009  -8.0197  -7.7909  -6.5769  -6.4491  -6.0878  -6.0338

          k =-0.5150 0.2656 0.0000 ( 18184 PWs)   bands (ev):

   -24.2783 -23.9031 -23.8527 -23.5104 -12.2470 -12.2272 -11.4968 -11.4232
    -9.5701  -8.8405  -7.9864  -7.7185  -6.5891  -6.4434  -6.1109  -6.0261

          k =-0.5303 0.5518 0.0000 ( 18128 PWs)   bands (ev):

   -24.2811 -23.9202 -23.8477 -23.4953 -12.2044 -12.1621 -11.6211 -11.4807
    -9.4077  -8.6267  -8.2624  -7.8428  -6.5073  -6.3936  -6.1107  -6.0576

          k =-0.4843-0.3070 0.0000 ( 18166 PWs)   bands (ev):

   -24.2828 -23.9388 -23.8406 -23.4823 -12.1132 -11.9488 -11.8913 -11.5827
    -9.2223  -8.6906  -8.1721  -8.0356  -6.3635  -6.2992  -6.1919  -6.1738

     highest occupied level (ev):    -6.0261

!    total energy              =    -176.32086178 Ry
     estimated scf accuracy    <          5.8E-11 Ry

     convergence has been achieved in   4 iterations

     negative rho (up, down):  4.844E-04 0.000E+00

     Forces acting on atoms (cartesian axes, Ry/au):

     atom    1 type  1   force =     0.00001215   -0.00001603   -0.00000367
     atom    2 type  1   force =     0.00001269    0.00001183   -0.00000152
     atom    3 type  1   force =     0.00001339   -0.00002558   -0.00001154
     atom    4 type  1   force =     0.00000264   -0.00000533   -0.00001464
     atom    5 type  1   force =     0.00000135    0.00001541   -0.00000672
     atom    6 type  1   force =     0.00000600    0.00001207    0.00000072
     atom    7 type  1   force =    -0.00000357   -0.00000195    0.00003573
     atom    8 type  1   force =    -0.00000581    0.00002085   -0.00003413
     atom    9 type  2   force =     0.00000766   -0.00000648    0.00002682
     atom   10 type  2   force =    -0.00002616   -0.00000366    0.00000905
     atom   11 type  2   force =     0.00001169   -0.00002920   -0.00000638
     atom   12 type  2   force =    -0.00003202    0.00002808    0.00000629

     Total force =     0.000099     Total SCF correction =     0.000010
     SCF correction compared to forces is large: reduce conv_thr to get better values

     Entering Dynamics:    iteration =    88

     <vel(dt)|acc(dt)> =   0.90429843

ATOMIC_POSITIONS (angstrom)
H             4.4731899022        3.7447535402       11.2229611788
H             5.3207589014        4.3035675689       10.0178027880
H             3.2968938638        1.1572574572        8.0889967028
H             3.1455114774        2.8651601218        9.3220554970
H             3.9931385560        3.4242324097        8.1170686736
H             6.3314611372        3.9821987944        8.0943179036
H             3.0067142331        1.8169884115       11.2507123569
H             2.1349550532        3.1863893459       11.2458820321
O             5.2905993846        4.2809475237       11.0186752722
O             3.1757381465        2.8879059838        8.3212349459
O             5.4272460977        4.3699300311        8.2645443401
O             3.0391796978        2.7987755699       11.0754343869



     Writing config-only to output data dir ./output/f-BH.save/
     NEW-OLD atomic charge density approx. for the potential

     negative rho (up, down):  4.844E-04 0.000E+00

     total cpu time spent up to now is     5336.6 secs

     per-process dynamical memory:   210.4 Mb

     Self-consistent Calculation

     iteration #  1     ecut=    60.00 Ry     beta= 0.70
     Davidson diagonalization with overlap
     ethr =  1.00E-06,  avg # of iterations =  2.0

     Threshold (ethr) on eigenvalues was too large:
     Diagonalizing with lowered threshold

     Davidson diagonalization with overlap
     ethr =  1.61E-10,  avg # of iterations =  4.1

     negative rho (up, down):  4.844E-04 0.000E+00

     total cpu time spent up to now is     5348.9 secs

     total energy              =    -176.32086179 Ry
     estimated scf accuracy    <       0.00000008 Ry

     iteration #  2     ecut=    60.00 Ry     beta= 0.70
     Davidson diagonalization with overlap
     ethr =  2.62E-10,  avg # of iterations =  2.0

     negative rho (up, down):  4.844E-04 0.000E+00

     total cpu time spent up to now is     5354.2 secs

     total energy              =    -176.32086180 Ry
     estimated scf accuracy    <          4.0E-09 Ry

     iteration #  3     ecut=    60.00 Ry     beta= 0.70
     Davidson diagonalization with overlap
     ethr =  1.24E-11,  avg # of iterations =  2.0

     negative rho (up, down):  4.844E-04 0.000E+00

     total cpu time spent up to now is     5359.8 secs

     total energy              =    -176.32086180 Ry
     estimated scf accuracy    <          7.3E-10 Ry

     iteration #  4     ecut=    60.00 Ry     beta= 0.70
     Davidson diagonalization with overlap
     ethr =  2.28E-12,  avg # of iterations =  2.9

     negative rho (up, down):  4.844E-04 0.000E+00

     total cpu time spent up to now is     5365.7 secs

     total energy              =    -176.32086180 Ry
     estimated scf accuracy    <          1.2E-10 Ry

     iteration #  5     ecut=    60.00 Ry     beta= 0.70
     Davidson diagonalization with overlap
     ethr =  3.86E-13,  avg # of iterations =  2.0

     negative rho (up, down):  4.844E-04 0.000E+00

     total cpu time spent up to now is     5370.8 secs

     End of self-consistent calculation

          k = 0.0000 0.0000 0.0000 ( 18047 PWs)   bands (ev):

   -24.6495 -24.2322 -23.4478 -23.0837 -12.0266 -11.8850 -11.8758 -11.8125
   -10.1098  -9.0469  -7.5400  -7.0156  -6.4284  -6.4101  -6.3233  -6.1817

          k =-0.0153 0.2863 0.0000 ( 18132 PWs)   bands (ev):

   -24.5134 -24.1005 -23.6184 -23.2480 -12.1500 -12.1035 -11.6424 -11.5799
    -9.8785  -8.9632  -7.7401  -7.3447  -6.5414  -6.4421  -6.2127  -6.1012

          k = 0.0307-0.5725 0.0000 ( 18166 PWs)   bands (ev):

   -24.2866 -23.9011 -23.8557 -23.5027 -12.2161 -12.2008 -11.5082 -11.4305
    -9.5692  -8.8334  -8.0022  -7.7440  -6.5948  -6.4435  -6.1216  -6.0275

          k = 0.2575-0.1328 0.0000 ( 18109 PWs)   bands (ev):

   -24.5114 -24.0985 -23.6199 -23.2495 -12.1674 -12.1249 -11.6260 -11.5762
    -9.8756  -8.9643  -7.7343  -7.3378  -6.5387  -6.4409  -6.2069  -6.1018

          k = 0.2421 0.1535 0.0000 ( 18132 PWs)   bands (ev):

   -24.5129 -24.1054 -23.6184 -23.2425 -12.0700 -11.9206 -11.8936 -11.6815
    -9.7763  -8.8625  -7.9009  -7.3997  -6.4059  -6.3157  -6.2426  -6.2245

          k = 0.2882-0.7053 0.0000 ( 18147 PWs)   bands (ev):

   -24.2854 -23.9199 -23.8482 -23.4916 -12.1884 -12.1456 -11.6297 -11.4865
    -9.4059  -8.6186  -8.2714  -7.8562  -6.5082  -6.3955  -6.1184  -6.0570

          k = 0.2728-0.4190 0.0000 ( 18128 PWs)   bands (ev):

   -24.2828 -23.9016 -23.8545 -23.5062 -12.2363 -12.2326 -11.4845 -11.4251
    -9.5443  -8.8009  -8.0196  -7.7909  -6.5768  -6.4490  -6.0877  -6.0337

          k =-0.5150 0.2656 0.0000 ( 18184 PWs)   bands (ev):

   -24.2782 -23.9031 -23.8526 -23.5103 -12.2466 -12.2270 -11.4968 -11.4231
    -9.5701  -8.8406  -7.9863  -7.7184  -6.5890  -6.4434  -6.1108  -6.0261

          k =-0.5303 0.5518 0.0000 ( 18128 PWs)   bands (ev):

   -24.2811 -23.9201 -23.8477 -23.4952 -12.2042 -12.1619 -11.6211 -11.4806
    -9.4077  -8.6269  -8.2623  -7.8428  -6.5073  -6.3935  -6.1106  -6.0575

          k =-0.4843-0.3070 0.0000 ( 18166 PWs)   bands (ev):

   -24.2828 -23.9387 -23.8405 -23.4822 -12.1131 -11.9488 -11.8911 -11.5825
    -9.2222  -8.6907  -8.1721  -8.0355  -6.3633  -6.2992  -6.1918  -6.1737

     highest occupied level (ev):    -6.0261

!    total energy              =    -176.32086180 Ry
     estimated scf accuracy    <          5.2E-12 Ry

     convergence has been achieved in   5 iterations

     negative rho (up, down):  4.844E-04 0.000E+00

     Forces acting on atoms (cartesian axes, Ry/au):

     atom    1 type  1   force =     0.00002349   -0.00000822   -0.00000649
     atom    2 type  1   force =     0.00001136    0.00001269    0.00001522
     atom    3 type  1   force =    -0.00000457   -0.00002697   -0.00000503
     atom    4 type  1   force =    -0.00000315   -0.00001054    0.00005486
     atom    5 type  1   force =    -0.00006262   -0.00002886    0.00001062
     atom    6 type  1   force =     0.00004032   -0.00002415   -0.00000076
     atom    7 type  1   force =    -0.00001404    0.00002407    0.00002887
     atom    8 type  1   force =    -0.00001253    0.00001088   -0.00002565
     atom    9 type  2   force =    -0.00001297   -0.00002389    0.00001507
     atom   10 type  2   force =     0.00005762    0.00004774   -0.00008424
     atom   11 type  2   force =    -0.00001696    0.00001489   -0.00000772
     atom   12 type  2   force =    -0.00000597    0.00001236    0.00000526

     Total force =     0.000171     Total SCF correction =     0.000004

     Entering Dynamics:    iteration =    89

     <vel(dt)|acc(dt)> =   0.90281318

ATOMIC_POSITIONS (angstrom)
H             4.4732717947        3.7448682325       11.2229458184
H             5.3208432284        4.3036923209       10.0178167606
H             3.2969066593        1.1569732532        8.0889226808
H             3.1454888768        2.8650602930        9.3220973826
H             3.9930350298        3.4240766555        8.1170604748
H             6.3315088935        3.9820435377        8.0942896389
H             3.0067161551        1.8172127848       11.2508985385
H             2.1349011533        3.1866633278       11.2457531575
O             5.2906530779        4.2810820386       11.0187063704
O             3.1756861976        2.8877820659        8.3212235084
O             5.4272304638        4.3696653266        8.2644584121
O             3.0391449205        2.7989869217       11.0755133348



     Writing config-only to output data dir ./output/f-BH.save/
     NEW-OLD atomic charge density approx. for the potential

     negative rho (up, down):  4.844E-04 0.000E+00

     total cpu time spent up to now is     5383.8 secs

     per-process dynamical memory:   210.4 Mb

     Self-consistent Calculation

     iteration #  1     ecut=    60.00 Ry     beta= 0.70
     Davidson diagonalization with overlap
     ethr =  1.00E-06,  avg # of iterations =  2.0

     Threshold (ethr) on eigenvalues was too large:
     Diagonalizing with lowered threshold

     Davidson diagonalization with overlap
     ethr =  1.75E-10,  avg # of iterations =  3.7

     negative rho (up, down):  4.843E-04 0.000E+00

     total cpu time spent up to now is     5395.8 secs

     total energy              =    -176.32086184 Ry
     estimated scf accuracy    <       0.00000009 Ry

     iteration #  2     ecut=    60.00 Ry     beta= 0.70
     Davidson diagonalization with overlap
     ethr =  2.76E-10,  avg # of iterations =  2.0

     negative rho (up, down):  4.844E-04 0.000E+00

     total cpu time spent up to now is     5401.1 secs

     total energy              =    -176.32086185 Ry
     estimated scf accuracy    <          4.8E-09 Ry

     iteration #  3     ecut=    60.00 Ry     beta= 0.70
     Davidson diagonalization with overlap
     ethr =  1.49E-11,  avg # of iterations =  2.0

     negative rho (up, down):  4.844E-04 0.000E+00

     total cpu time spent up to now is     5406.6 secs

     total energy              =    -176.32086185 Ry
     estimated scf accuracy    <          7.2E-10 Ry

     iteration #  4     ecut=    60.00 Ry     beta= 0.70
     Davidson diagonalization with overlap
     ethr =  2.24E-12,  avg # of iterations =  2.7

     negative rho (up, down):  4.844E-04 0.000E+00

     total cpu time spent up to now is     5412.4 secs

     total energy              =    -176.32086185 Ry
     estimated scf accuracy    <          1.2E-10 Ry

     iteration #  5     ecut=    60.00 Ry     beta= 0.70
     Davidson diagonalization with overlap
     ethr =  3.89E-13,  avg # of iterations =  2.2

     negative rho (up, down):  4.844E-04 0.000E+00

     total cpu time spent up to now is     5417.8 secs

     End of self-consistent calculation

          k = 0.0000 0.0000 0.0000 ( 18047 PWs)   bands (ev):

   -24.6495 -24.2324 -23.4479 -23.0838 -12.0266 -11.8848 -11.8760 -11.8126
   -10.1098  -9.0471  -7.5401  -7.0158  -6.4286  -6.4101  -6.3235  -6.1817

          k =-0.0153 0.2863 0.0000 ( 18132 PWs)   bands (ev):

   -24.5135 -24.1006 -23.6184 -23.2481 -12.1501 -12.1037 -11.6423 -11.5799
    -9.8785  -8.9634  -7.7401  -7.3449  -6.5415  -6.4422  -6.2128  -6.1012

          k = 0.0307-0.5725 0.0000 ( 18166 PWs)   bands (ev):

   -24.2868 -23.9013 -23.8557 -23.5027 -12.2162 -12.2010 -11.5081 -11.4305
    -9.5693  -8.8336  -8.0022  -7.7442  -6.5949  -6.4436  -6.1217  -6.0276

          k = 0.2575-0.1328 0.0000 ( 18109 PWs)   bands (ev):

   -24.5114 -24.0987 -23.6200 -23.2496 -12.1674 -12.1249 -11.6261 -11.5762
    -9.8756  -8.9645  -7.7344  -7.3381  -6.5388  -6.4410  -6.2070  -6.1019

          k = 0.2421 0.1535 0.0000 ( 18132 PWs)   bands (ev):

   -24.5130 -24.1056 -23.6185 -23.2426 -12.0700 -11.9205 -11.8938 -11.6816
    -9.7763  -8.8627  -7.9009  -7.3999  -6.4059  -6.3158  -6.2428  -6.2245

          k = 0.2882-0.7053 0.0000 ( 18147 PWs)   bands (ev):

   -24.2855 -23.9201 -23.8482 -23.4917 -12.1885 -12.1458 -11.6296 -11.4865
    -9.4059  -8.6188  -8.2715  -7.8563  -6.5083  -6.3956  -6.1185  -6.0571

          k = 0.2728-0.4190 0.0000 ( 18128 PWs)   bands (ev):

   -24.2829 -23.9018 -23.8545 -23.5063 -12.2364 -12.2327 -11.4845 -11.4252
    -9.5443  -8.8011  -8.0197  -7.7911  -6.5769  -6.4491  -6.0878  -6.0338

          k =-0.5150 0.2656 0.0000 ( 18184 PWs)   bands (ev):

   -24.2781 -23.9033 -23.8526 -23.5106 -12.2466 -12.2270 -11.4969 -11.4232
    -9.5700  -8.8407  -7.9865  -7.7187  -6.5891  -6.4435  -6.1109  -6.0262

          k =-0.5303 0.5518 0.0000 ( 18128 PWs)   bands (ev):

   -24.2811 -23.9203 -23.8477 -23.4954 -12.2042 -12.1618 -11.6212 -11.4807
    -9.4076  -8.6270  -8.2624  -7.8430  -6.5073  -6.3935  -6.1107  -6.0577

          k =-0.4843-0.3070 0.0000 ( 18166 PWs)   bands (ev):

   -24.2829 -23.9388 -23.8405 -23.4824 -12.1131 -11.9488 -11.8912 -11.5826
    -9.2221  -8.6909  -8.1722  -8.0357  -6.3633  -6.2993  -6.1919  -6.1739

     highest occupied level (ev):    -6.0262

!    total energy              =    -176.32086185 Ry
     estimated scf accuracy    <          3.3E-12 Ry

     convergence has been achieved in   5 iterations

     negative rho (up, down):  4.844E-04 0.000E+00

     Forces acting on atoms (cartesian axes, Ry/au):

     atom    1 type  1   force =    -0.00000905   -0.00002192    0.00000586
     atom    2 type  1   force =     0.00000260    0.00000676    0.00003935
     atom    3 type  1   force =    -0.00002245   -0.00000739   -0.00000800
     atom    4 type  1   force =    -0.00000322   -0.00000735   -0.00001932
     atom    5 type  1   force =     0.00000906    0.00000927   -0.00001157
     atom    6 type  1   force =     0.00003615   -0.00005019    0.00000187
     atom    7 type  1   force =    -0.00003048    0.00005010    0.00001957
     atom    8 type  1   force =    -0.00002046   -0.00000428   -0.00000351
     atom    9 type  2   force =     0.00001764   -0.00000142   -0.00003156
     atom   10 type  2   force =    -0.00000888   -0.00000363    0.00001721
     atom   11 type  2   force =     0.00000218    0.00003991    0.00000134
     atom   12 type  2   force =     0.00002691   -0.00000985   -0.00001125

     Total force =     0.000126     Total SCF correction =     0.000005

     Entering Dynamics:    iteration =    90

     <vel(dt)|acc(dt)> =   0.96859788

ATOMIC_POSITIONS (angstrom)
H             4.4733411679        3.7449197067       11.2228975479
H             5.3209558647        4.3038619933       10.0179035260
H             3.2968755017        1.1566317730        8.0888042751
H             3.1454666274        2.8649102376        9.3221211025
H             3.9929328027        3.4239431969        8.1170597375
H             6.3316151576        3.9817849734        8.0942746192
H             3.0066851360        1.8175927450       11.2511510776
H             2.1347947035        3.1869964504       11.2455615647
O             5.2907278341        4.2811840651       11.0187358420
O             3.1756065128        2.8876439101        8.3212584515
O             5.4272406272        4.3693597819        8.2643235361
O             3.0391445151        2.7992779247       11.0755947976



     Writing config-only to output data dir ./output/f-BH.save/
     NEW-OLD atomic charge density approx. for the potential

     negative rho (up, down):  4.843E-04 0.000E+00

     total cpu time spent up to now is     5430.9 secs

     per-process dynamical memory:   210.4 Mb

     Self-consistent Calculation

     iteration #  1     ecut=    60.00 Ry     beta= 0.70
     Davidson diagonalization with overlap
     ethr =  1.00E-06,  avg # of iterations =  2.0

     Threshold (ethr) on eigenvalues was too large:
     Diagonalizing with lowered threshold

     Davidson diagonalization with overlap
     ethr =  2.55E-10,  avg # of iterations =  3.9

     negative rho (up, down):  4.843E-04 0.000E+00

     total cpu time spent up to now is     5442.9 secs

     total energy              =    -176.32086186 Ry
     estimated scf accuracy    <       0.00000013 Ry

     iteration #  2     ecut=    60.00 Ry     beta= 0.70
     Davidson diagonalization with overlap
     ethr =  4.16E-10,  avg # of iterations =  2.0

     negative rho (up, down):  4.843E-04 0.000E+00

     total cpu time spent up to now is     5448.1 secs

     total energy              =    -176.32086188 Ry
     estimated scf accuracy    <          6.5E-09 Ry

     iteration #  3     ecut=    60.00 Ry     beta= 0.70
     Davidson diagonalization with overlap
     ethr =  2.03E-11,  avg # of iterations =  2.0

     negative rho (up, down):  4.843E-04 0.000E+00

     total cpu time spent up to now is     5453.5 secs

     total energy              =    -176.32086188 Ry
     estimated scf accuracy    <          6.5E-10 Ry

     iteration #  4     ecut=    60.00 Ry     beta= 0.70
     Davidson diagonalization with overlap
     ethr =  2.03E-12,  avg # of iterations =  2.7

     negative rho (up, down):  4.843E-04 0.000E+00

     total cpu time spent up to now is     5459.5 secs

     total energy              =    -176.32086188 Ry
     estimated scf accuracy    <          1.3E-10 Ry

     iteration #  5     ecut=    60.00 Ry     beta= 0.70
     Davidson diagonalization with overlap
     ethr =  3.95E-13,  avg # of iterations =  2.4

     negative rho (up, down):  4.843E-04 0.000E+00

     total cpu time spent up to now is     5465.0 secs

     End of self-consistent calculation

          k = 0.0000 0.0000 0.0000 ( 18047 PWs)   bands (ev):

   -24.6497 -24.2326 -23.4480 -23.0840 -12.0265 -11.8847 -11.8764 -11.8129
   -10.1097  -9.0475  -7.5400  -7.0159  -6.4287  -6.4101  -6.3237  -6.1817

          k =-0.0153 0.2863 0.0000 ( 18132 PWs)   bands (ev):

   -24.5137 -24.1009 -23.6185 -23.2482 -12.1501 -12.1039 -11.6423 -11.5801
    -9.8785  -8.9639  -7.7400  -7.3450  -6.5416  -6.4423  -6.2129  -6.1012

          k = 0.0307-0.5725 0.0000 ( 18166 PWs)   bands (ev):

   -24.2872 -23.9016 -23.8557 -23.5026 -12.2163 -12.2012 -11.5082 -11.4306
    -9.5694  -8.8342  -8.0018  -7.7442  -6.5949  -6.4436  -6.1219  -6.0276

          k = 0.2575-0.1328 0.0000 ( 18109 PWs)   bands (ev):

   -24.5115 -24.0988 -23.6201 -23.2499 -12.1674 -12.1249 -11.6263 -11.5765
    -9.8754  -8.9648  -7.7345  -7.3383  -6.5388  -6.4411  -6.2071  -6.1021

          k = 0.2421 0.1535 0.0000 ( 18132 PWs)   bands (ev):

   -24.5131 -24.1058 -23.6186 -23.2428 -12.0700 -11.9205 -11.8941 -11.6819
    -9.7762  -8.8631  -7.9009  -7.4000  -6.4059  -6.3160  -6.2430  -6.2246

          k = 0.2882-0.7053 0.0000 ( 18147 PWs)   bands (ev):

   -24.2857 -23.9204 -23.8482 -23.4918 -12.1886 -12.1459 -11.6298 -11.4867
    -9.4060  -8.6193  -8.2713  -7.8564  -6.5083  -6.3957  -6.1187  -6.0572

          k = 0.2728-0.4190 0.0000 ( 18128 PWs)   bands (ev):

   -24.2830 -23.9022 -23.8545 -23.5064 -12.2365 -12.2327 -11.4847 -11.4254
    -9.5442  -8.8014  -8.0198  -7.7913  -6.5769  -6.4491  -6.0880  -6.0340

          k =-0.5150 0.2656 0.0000 ( 18184 PWs)   bands (ev):

   -24.2781 -23.9037 -23.8526 -23.5110 -12.2466 -12.2269 -11.4970 -11.4236
    -9.5696  -8.8408  -7.9868  -7.7191  -6.5891  -6.4436  -6.1110  -6.0265

          k =-0.5303 0.5518 0.0000 ( 18128 PWs)   bands (ev):

   -24.2811 -23.9206 -23.8477 -23.4957 -12.2042 -12.1618 -11.6214 -11.4810
    -9.4073  -8.6272  -8.2625  -7.8433  -6.5073  -6.3936  -6.1108  -6.0579

          k =-0.4843-0.3070 0.0000 ( 18166 PWs)   bands (ev):

   -24.2830 -23.9392 -23.8405 -23.4826 -12.1131 -11.9488 -11.8914 -11.5829
    -9.2221  -8.6910  -8.1724  -8.0359  -6.3633  -6.2994  -6.1921  -6.1741

     highest occupied level (ev):    -6.0265

!    total energy              =    -176.32086188 Ry
     estimated scf accuracy    <          4.0E-12 Ry

     convergence has been achieved in   5 iterations

     negative rho (up, down):  4.843E-04 0.000E+00

     Forces acting on atoms (cartesian axes, Ry/au):

     atom    1 type  1   force =    -0.00000253   -0.00000807    0.00000796
     atom    2 type  1   force =    -0.00000647   -0.00000216   -0.00003140
     atom    3 type  1   force =    -0.00001891    0.00002464   -0.00001902
     atom    4 type  1   force =    -0.00000136    0.00000036   -0.00001072
     atom    5 type  1   force =     0.00002929    0.00000981   -0.00001388
     atom    6 type  1   force =    -0.00001449   -0.00003656    0.00000979
     atom    7 type  1   force =    -0.00003052    0.00000128    0.00002005
     atom    8 type  1   force =     0.00003898   -0.00002864    0.00000696
     atom    9 type  2   force =     0.00001068   -0.00000538    0.00002719
     atom   10 type  2   force =    -0.00001770   -0.00001576    0.00000773
     atom   11 type  2   force =     0.00004080    0.00001240    0.00001153
     atom   12 type  2   force =    -0.00002778    0.00004809   -0.00001621

     Total force =     0.000126     Total SCF correction =     0.000004

     Entering Dynamics:    iteration =    91

     <vel(dt)|acc(dt)> =   0.10498003

ATOMIC_POSITIONS (angstrom)
H             4.4733317436        3.7449281789       11.2229049483
H             5.3209461535        4.3038634406       10.0178867881
H             3.2968368950        1.1566634711        8.0887917324
H             3.1454592047        2.8649036673        9.3221238017
H             3.9929504617        3.4239324370        8.1170509687
H             6.3316080239        3.9817155473        8.0942845672
H             3.0066494747        1.8176283624       11.2511542615
H             2.1348248077        3.1869677398       11.2455836562
O             5.2907382256        4.2811881945       11.0187391373
O             3.1756092835        2.8876254346        8.3212582306
O             5.4272753856        4.3693760759        8.2643268199
O             3.0391567913        2.7993142086       11.0755811659



     Writing config-only to output data dir ./output/f-BH.save/
     NEW-OLD atomic charge density approx. for the potential

     negative rho (up, down):  4.843E-04 0.000E+00

     total cpu time spent up to now is     5477.9 secs

     per-process dynamical memory:   210.4 Mb

     Self-consistent Calculation

     iteration #  1     ecut=    60.00 Ry     beta= 0.70
     Davidson diagonalization with overlap
     ethr =  1.00E-06,  avg # of iterations =  2.0

     Threshold (ethr) on eigenvalues was too large:
     Diagonalizing with lowered threshold

     Davidson diagonalization with overlap
     ethr =  8.72E-12,  avg # of iterations =  3.2

     negative rho (up, down):  4.843E-04 0.000E+00

     total cpu time spent up to now is     5488.7 secs

     total energy              =    -176.32086189 Ry
     estimated scf accuracy    <          2.6E-09 Ry

     iteration #  2     ecut=    60.00 Ry     beta= 0.70
     Davidson diagonalization with overlap
     ethr =  7.97E-12,  avg # of iterations =  2.0

     negative rho (up, down):  4.843E-04 0.000E+00

     total cpu time spent up to now is     5494.3 secs

     total energy              =    -176.32086189 Ry
     estimated scf accuracy    <          5.6E-10 Ry

     iteration #  3     ecut=    60.00 Ry     beta= 0.70
     Davidson diagonalization with overlap
     ethr =  1.76E-12,  avg # of iterations =  2.0

     negative rho (up, down):  4.843E-04 0.000E+00

     total cpu time spent up to now is     5500.0 secs

     End of self-consistent calculation

          k = 0.0000 0.0000 0.0000 ( 18047 PWs)   bands (ev):

   -24.6496 -24.2325 -23.4480 -23.0839 -12.0266 -11.8847 -11.8762 -11.8127
   -10.1097  -9.0474  -7.5400  -7.0159  -6.4286  -6.4101  -6.3236  -6.1817

          k =-0.0153 0.2863 0.0000 ( 18132 PWs)   bands (ev):

   -24.5136 -24.1008 -23.6184 -23.2481 -12.1502 -12.1038 -11.6423 -11.5800
    -9.8784  -8.9638  -7.7400  -7.3449  -6.5416  -6.4423  -6.2129  -6.1012

          k = 0.0307-0.5725 0.0000 ( 18166 PWs)   bands (ev):

   -24.2871 -23.9014 -23.8558 -23.5026 -12.2163 -12.2012 -11.5081 -11.4305
    -9.5694  -8.8341  -8.0018  -7.7441  -6.5949  -6.4436  -6.1218  -6.0276

          k = 0.2575-0.1328 0.0000 ( 18109 PWs)   bands (ev):

   -24.5114 -24.0987 -23.6201 -23.2498 -12.1673 -12.1249 -11.6262 -11.5764
    -9.8754  -8.9647  -7.7344  -7.3382  -6.5388  -6.4411  -6.2071  -6.1021

          k = 0.2421 0.1535 0.0000 ( 18132 PWs)   bands (ev):

   -24.5130 -24.1057 -23.6185 -23.2427 -12.0701 -11.9205 -11.8940 -11.6817
    -9.7762  -8.8630  -7.9008  -7.3999  -6.4060  -6.3159  -6.2429  -6.2246

          k = 0.2882-0.7053 0.0000 ( 18147 PWs)   bands (ev):

   -24.2856 -23.9201 -23.8482 -23.4917 -12.1886 -12.1459 -11.6297 -11.4865
    -9.4060  -8.6192  -8.2712  -7.8563  -6.5083  -6.3957  -6.1186  -6.0571

          k = 0.2728-0.4190 0.0000 ( 18128 PWs)   bands (ev):

   -24.2829 -23.9019 -23.8545 -23.5064 -12.2364 -12.2327 -11.4846 -11.4253
    -9.5441  -8.8013  -8.0197  -7.7912  -6.5769  -6.4491  -6.0879  -6.0339

          k =-0.5150 0.2656 0.0000 ( 18184 PWs)   bands (ev):

   -24.2780 -23.9035 -23.8526 -23.5109 -12.2465 -12.2269 -11.4970 -11.4235
    -9.5696  -8.8407  -7.9868  -7.7190  -6.5891  -6.4435  -6.1109  -6.0264

          k =-0.5303 0.5518 0.0000 ( 18128 PWs)   bands (ev):

   -24.2810 -23.9204 -23.8477 -23.4956 -12.2042 -12.1618 -11.6214 -11.4808
    -9.4073  -8.6272  -8.2624  -7.8432  -6.5073  -6.3936  -6.1107  -6.0579

          k =-0.4843-0.3070 0.0000 ( 18166 PWs)   bands (ev):

   -24.2829 -23.9389 -23.8406 -23.4825 -12.1132 -11.9489 -11.8912 -11.5827
    -9.2220  -8.6909  -8.1723  -8.0358  -6.3634  -6.2994  -6.1920  -6.1740

     highest occupied level (ev):    -6.0264

!    total energy              =    -176.32086189 Ry
     estimated scf accuracy    <          7.2E-11 Ry

     convergence has been achieved in   3 iterations

     negative rho (up, down):  4.843E-04 0.000E+00

     Forces acting on atoms (cartesian axes, Ry/au):

     atom    1 type  1   force =     0.00001761    0.00000489    0.00000330
     atom    2 type  1   force =    -0.00000289   -0.00000140   -0.00000451
     atom    3 type  1   force =     0.00000574   -0.00000061   -0.00001734
     atom    4 type  1   force =     0.00000165    0.00000209   -0.00001455
     atom    5 type  1   force =     0.00000943   -0.00000202   -0.00000604
     atom    6 type  1   force =    -0.00000116   -0.00001265    0.00000308
     atom    7 type  1   force =    -0.00001070    0.00000188    0.00001434
     atom    8 type  1   force =    -0.00000382    0.00000999    0.00000928
     atom    9 type  2   force =    -0.00001410   -0.00001334    0.00000626
     atom   10 type  2   force =     0.00000025   -0.00000573    0.00000365
     atom   11 type  2   force =     0.00000058    0.00001236    0.00001703
     atom   12 type  2   force =    -0.00000257    0.00000455   -0.00001450

     Total force =     0.000054     Total SCF correction =     0.000006
     SCF correction compared to forces is large: reduce conv_thr to get better values

     Entering Dynamics:    iteration =    92

     <vel(dt)|acc(dt)> =   0.35097794

ATOMIC_POSITIONS (angstrom)
H             4.4733475193        3.7449491198       11.2229050976
H             5.3209558449        4.3038833362       10.0178854490
H             3.2968296500        1.1566250295        8.0887678002
H             3.1454547269        2.8648857500        9.3221233090
H             3.9929450929        3.4239046309        8.1170452261
H             6.3316137580        3.9816637652        8.0942839893
H             3.0066363707        1.8176799774       11.2511905579
H             2.1348207390        3.1870099182       11.2455737223
O             5.2907444061        4.2812058917       11.0187444462
O             3.1755998248        2.8875961570        8.3212627743
O             5.4272820557        4.3693436963        8.2643206919
O             3.0391564625        2.7993594859       11.0755830143



     Writing config-only to output data dir ./output/f-BH.save/
     NEW-OLD atomic charge density approx. for the potential

     negative rho (up, down):  4.843E-04 0.000E+00

     total cpu time spent up to now is     5512.9 secs

     per-process dynamical memory:   210.4 Mb

     Self-consistent Calculation

     iteration #  1     ecut=    60.00 Ry     beta= 0.70
     Davidson diagonalization with overlap
     ethr =  1.00E-06,  avg # of iterations =  2.0

     Threshold (ethr) on eigenvalues was too large:
     Diagonalizing with lowered threshold

     Davidson diagonalization with overlap
     ethr =  4.15E-12,  avg # of iterations =  4.2

     negative rho (up, down):  4.843E-04 0.000E+00

     total cpu time spent up to now is     5525.2 secs

     total energy              =    -176.32086189 Ry
     estimated scf accuracy    <          2.6E-09 Ry

     iteration #  2     ecut=    60.00 Ry     beta= 0.70
     Davidson diagonalization with overlap
     ethr =  8.23E-12,  avg # of iterations =  2.0

     negative rho (up, down):  4.843E-04 0.000E+00

     total cpu time spent up to now is     5530.6 secs

     total energy              =    -176.32086189 Ry
     estimated scf accuracy    <          2.1E-10 Ry

     iteration #  3     ecut=    60.00 Ry     beta= 0.70
     Davidson diagonalization with overlap
     ethr =  6.60E-13,  avg # of iterations =  2.0

     negative rho (up, down):  4.843E-04 0.000E+00

     total cpu time spent up to now is     5536.3 secs

     End of self-consistent calculation

          k = 0.0000 0.0000 0.0000 ( 18047 PWs)   bands (ev):

   -24.6495 -24.2325 -23.4479 -23.0839 -12.0265 -11.8847 -11.8762 -11.8127
   -10.1097  -9.0474  -7.5400  -7.0158  -6.4286  -6.4101  -6.3236  -6.1817

          k =-0.0153 0.2863 0.0000 ( 18132 PWs)   bands (ev):

   -24.5135 -24.1008 -23.6184 -23.2481 -12.1501 -12.1038 -11.6422 -11.5800
    -9.8784  -8.9638  -7.7399  -7.3448  -6.5415  -6.4423  -6.2128  -6.1012

          k = 0.0307-0.5725 0.0000 ( 18166 PWs)   bands (ev):

   -24.2871 -23.9014 -23.8557 -23.5025 -12.2163 -12.2012 -11.5081 -11.4305
    -9.5694  -8.8341  -8.0018  -7.7441  -6.5949  -6.4436  -6.1218  -6.0275

          k = 0.2575-0.1328 0.0000 ( 18109 PWs)   bands (ev):

   -24.5114 -24.0987 -23.6200 -23.2498 -12.1673 -12.1248 -11.6262 -11.5764
    -9.8753  -8.9647  -7.7344  -7.3382  -6.5388  -6.4410  -6.2070  -6.1020

          k = 0.2421 0.1535 0.0000 ( 18132 PWs)   bands (ev):

   -24.5130 -24.1056 -23.6185 -23.2427 -12.0700 -11.9204 -11.8940 -11.6817
    -9.7761  -8.8630  -7.9008  -7.3999  -6.4059  -6.3159  -6.2429  -6.2245

          k = 0.2882-0.7053 0.0000 ( 18147 PWs)   bands (ev):

   -24.2856 -23.9202 -23.8482 -23.4916 -12.1886 -12.1458 -11.6297 -11.4865
    -9.4059  -8.6192  -8.2712  -7.8563  -6.5082  -6.3957  -6.1186  -6.0571

          k = 0.2728-0.4190 0.0000 ( 18128 PWs)   bands (ev):

   -24.2829 -23.9020 -23.8545 -23.5063 -12.2364 -12.2327 -11.4846 -11.4253
    -9.5441  -8.8013  -8.0197  -7.7912  -6.5769  -6.4491  -6.0879  -6.0339

          k =-0.5150 0.2656 0.0000 ( 18184 PWs)   bands (ev):

   -24.2780 -23.9035 -23.8526 -23.5109 -12.2465 -12.2268 -11.4970 -11.4235
    -9.5695  -8.8407  -7.9868  -7.7190  -6.5891  -6.4435  -6.1109  -6.0264

          k =-0.5303 0.5518 0.0000 ( 18128 PWs)   bands (ev):

   -24.2810 -23.9204 -23.8477 -23.4956 -12.2041 -12.1617 -11.6213 -11.4808
    -9.4072  -8.6271  -8.2624  -7.8432  -6.5073  -6.3935  -6.1107  -6.0579

          k =-0.4843-0.3070 0.0000 ( 18166 PWs)   bands (ev):

   -24.2829 -23.9389 -23.8405 -23.4825 -12.1132 -11.9489 -11.8912 -11.5827
    -9.2220  -8.6909  -8.1723  -8.0358  -6.3633  -6.2993  -6.1920  -6.1740

     highest occupied level (ev):    -6.0264

!    total energy              =    -176.32086189 Ry
     estimated scf accuracy    <          6.5E-11 Ry

     convergence has been achieved in   3 iterations

     negative rho (up, down):  4.843E-04 0.000E+00

     Forces acting on atoms (cartesian axes, Ry/au):

     atom    1 type  1   force =     0.00000525   -0.00000205    0.00000640
     atom    2 type  1   force =    -0.00000388   -0.00000193    0.00000515
     atom    3 type  1   force =     0.00000998    0.00000137   -0.00001702
     atom    4 type  1   force =     0.00000194    0.00000232   -0.00000656
     atom    5 type  1   force =     0.00000301   -0.00000623   -0.00000306
     atom    6 type  1   force =    -0.00000592   -0.00000563    0.00000367
     atom    7 type  1   force =    -0.00000726    0.00000481    0.00001067
     atom    8 type  1   force =    -0.00000538    0.00001365    0.00001026
     atom    9 type  2   force =    -0.00000118   -0.00000244   -0.00000720
     atom   10 type  2   force =     0.00000753   -0.00000103   -0.00000781
     atom   11 type  2   force =     0.00000042    0.00000296    0.00001744
     atom   12 type  2   force =    -0.00000451   -0.00000579   -0.00001194

     Total force =     0.000044     Total SCF correction =     0.000007
     SCF correction compared to forces is large: reduce conv_thr to get better values

     Entering Dynamics:    iteration =    93

     <vel(dt)|acc(dt)> =   0.98298834

ATOMIC_POSITIONS (angstrom)
H             4.4733663266        3.7449876690       11.2229102030
H             5.3209682362        4.3039109621       10.0178835401
H             3.2968269308        1.1565646941        8.0887343792
H             3.1454481781        2.8648614131        9.3221261591
H             3.9929346551        3.4238540408        8.1170373710
H             6.3316137701        3.9815961255        8.0942807968
H             3.0066246381        1.8177485043       11.2512384688
H             2.1348185349        3.1870783758       11.2455654828
O             5.2907597730        4.2812473109       11.0187412601
O             3.1755885537        2.8875488057        8.3212648222
O             5.4272857758        4.3692884752        8.2643155904
O             3.0391510783        2.7994203815       11.0755880044



     Writing config-only to output data dir ./output/f-BH.save/
     NEW-OLD atomic charge density approx. for the potential

     negative rho (up, down):  4.843E-04 0.000E+00

     total cpu time spent up to now is     5549.2 secs

     per-process dynamical memory:   210.4 Mb

     Self-consistent Calculation

     iteration #  1     ecut=    60.00 Ry     beta= 0.70
     Davidson diagonalization with overlap
     ethr =  1.00E-06,  avg # of iterations =  2.0

     Threshold (ethr) on eigenvalues was too large:
     Diagonalizing with lowered threshold

     Davidson diagonalization with overlap
     ethr =  9.94E-12,  avg # of iterations =  4.0

     negative rho (up, down):  4.843E-04 0.000E+00

     total cpu time spent up to now is     5561.4 secs

     total energy              =    -176.32086190 Ry
     estimated scf accuracy    <          6.0E-09 Ry

     iteration #  2     ecut=    60.00 Ry     beta= 0.70
     Davidson diagonalization with overlap
     ethr =  1.89E-11,  avg # of iterations =  2.0

     negative rho (up, down):  4.843E-04 0.000E+00

     total cpu time spent up to now is     5566.7 secs

     total energy              =    -176.32086190 Ry
     estimated scf accuracy    <          4.8E-10 Ry

     iteration #  3     ecut=    60.00 Ry     beta= 0.70
     Davidson diagonalization with overlap
     ethr =  1.50E-12,  avg # of iterations =  2.6

     negative rho (up, down):  4.843E-04 0.000E+00

     total cpu time spent up to now is     5572.7 secs

     total energy              =    -176.32086190 Ry
     estimated scf accuracy    <          1.7E-10 Ry

     iteration #  4     ecut=    60.00 Ry     beta= 0.70
     Davidson diagonalization with overlap
     ethr =  5.42E-13,  avg # of iterations =  2.5

     negative rho (up, down):  4.843E-04 0.000E+00

     total cpu time spent up to now is     5578.0 secs

     End of self-consistent calculation

          k = 0.0000 0.0000 0.0000 ( 18047 PWs)   bands (ev):

   -24.6495 -24.2324 -23.4479 -23.0839 -12.0265 -11.8846 -11.8761 -11.8127
   -10.1096  -9.0474  -7.5399  -7.0158  -6.4285  -6.4101  -6.3235  -6.1817

          k =-0.0153 0.2863 0.0000 ( 18132 PWs)   bands (ev):

   -24.5135 -24.1007 -23.6183 -23.2480 -12.1501 -12.1038 -11.6422 -11.5800
    -9.8784  -8.9638  -7.7399  -7.3448  -6.5415  -6.4422  -6.2128  -6.1011

          k = 0.0307-0.5725 0.0000 ( 18166 PWs)   bands (ev):

   -24.2870 -23.9014 -23.8557 -23.5025 -12.2162 -12.2012 -11.5081 -11.4305
    -9.5693  -8.8341  -8.0017  -7.7440  -6.5949  -6.4435  -6.1217  -6.0275

          k = 0.2575-0.1328 0.0000 ( 18109 PWs)   bands (ev):

   -24.5113 -24.0986 -23.6200 -23.2497 -12.1672 -12.1248 -11.6262 -11.5764
    -9.8753  -8.9647  -7.7344  -7.3382  -6.5388  -6.4410  -6.2070  -6.1020

          k = 0.2421 0.1535 0.0000 ( 18132 PWs)   bands (ev):

   -24.5129 -24.1056 -23.6185 -23.2426 -12.0700 -11.9204 -11.8939 -11.6816
    -9.7761  -8.8629  -7.9008  -7.3999  -6.4059  -6.3158  -6.2428  -6.2245

          k = 0.2882-0.7053 0.0000 ( 18147 PWs)   bands (ev):

   -24.2856 -23.9201 -23.8481 -23.4916 -12.1885 -12.1458 -11.6296 -11.4865
    -9.4059  -8.6192  -8.2712  -7.8562  -6.5082  -6.3957  -6.1185  -6.0570

          k = 0.2728-0.4190 0.0000 ( 18128 PWs)   bands (ev):

   -24.2829 -23.9019 -23.8545 -23.5063 -12.2363 -12.2326 -11.4846 -11.4253
    -9.5440  -8.8013  -8.0197  -7.7911  -6.5769  -6.4491  -6.0878  -6.0338

          k =-0.5150 0.2656 0.0000 ( 18184 PWs)   bands (ev):

   -24.2779 -23.9035 -23.8525 -23.5109 -12.2464 -12.2268 -11.4970 -11.4234
    -9.5694  -8.8406  -7.9868  -7.7189  -6.5890  -6.4435  -6.1108  -6.0264

          k =-0.5303 0.5518 0.0000 ( 18128 PWs)   bands (ev):

   -24.2809 -23.9204 -23.8477 -23.4956 -12.2041 -12.1617 -11.6213 -11.4808
    -9.4072  -8.6271  -8.2624  -7.8432  -6.5073  -6.3935  -6.1107  -6.0578

          k =-0.4843-0.3070 0.0000 ( 18166 PWs)   bands (ev):

   -24.2829 -23.9389 -23.8405 -23.4824 -12.1131 -11.9489 -11.8911 -11.5827
    -9.2219  -8.6909  -8.1722  -8.0357  -6.3633  -6.2993  -6.1919  -6.1739

     highest occupied level (ev):    -6.0264

!    total energy              =    -176.32086190 Ry
     estimated scf accuracy    <          4.4E-12 Ry

     convergence has been achieved in   4 iterations

     negative rho (up, down):  4.843E-04 0.000E+00

     Forces acting on atoms (cartesian axes, Ry/au):

     atom    1 type  1   force =     0.00000561   -0.00000070    0.00000528
     atom    2 type  1   force =    -0.00000440   -0.00000194    0.00000271
     atom    3 type  1   force =     0.00001148   -0.00000051   -0.00001449
     atom    4 type  1   force =     0.00000178    0.00000172   -0.00000652
     atom    5 type  1   force =     0.00000203   -0.00000694   -0.00000258
     atom    6 type  1   force =    -0.00000565   -0.00000342    0.00000381
     atom    7 type  1   force =    -0.00000544    0.00000789    0.00000586
     atom    8 type  1   force =    -0.00001063    0.00001664    0.00001159
     atom    9 type  2   force =    -0.00000435   -0.00000306   -0.00000282
     atom   10 type  2   force =     0.00001114    0.00000072   -0.00000909
     atom   11 type  2   force =    -0.00000405    0.00000456    0.00001626
     atom   12 type  2   force =     0.00000247   -0.00001498   -0.00001001

     Total force =     0.000046     Total SCF correction =     0.000004

     Entering Dynamics:    iteration =    94

     <vel(dt)|acc(dt)> =  -0.81569319

ATOMIC_POSITIONS (angstrom)
H             4.4733657375        3.7449745408       11.2229111851
H             5.3209656764        4.3039061238       10.0178854813
H             3.2968316036        1.1565742883        8.0887317391
H             3.1454505944        2.8648660828        9.3221216511
H             3.9929383196        3.4238643428        8.1170365217
H             6.3316138730        3.9816057346        8.0942836032
H             3.0066213784        1.8177395058       11.2512389308
H             2.1348157790        3.1870715584       11.2455667415
O             5.2907573232        4.2812355094       11.0187441227
O             3.1755917967        2.8875589515        8.3212610423
O             5.4272873279        4.3693007931        8.2643231396
O             3.0391470412        2.7994093268       11.0755819194



     Writing config-only to output data dir ./output/f-BH.save/
     NEW-OLD atomic charge density approx. for the potential

     negative rho (up, down):  4.843E-04 0.000E+00

     total cpu time spent up to now is     5590.8 secs

     per-process dynamical memory:   210.4 Mb

     Self-consistent Calculation

     iteration #  1     ecut=    60.00 Ry     beta= 0.70
     Davidson diagonalization with overlap
     ethr =  1.00E-06,  avg # of iterations =  2.0

     Threshold (ethr) on eigenvalues was too large:
     Diagonalizing with lowered threshold

     Davidson diagonalization with overlap
     ethr =  4.62E-13,  avg # of iterations =  4.0

     negative rho (up, down):  4.843E-04 0.000E+00

     total cpu time spent up to now is     5603.2 secs

     total energy              =    -176.32086190 Ry
     estimated scf accuracy    <          2.9E-10 Ry

     iteration #  2     ecut=    60.00 Ry     beta= 0.70
     Davidson diagonalization with overlap
     ethr =  9.20E-13,  avg # of iterations =  2.0

     negative rho (up, down):  4.843E-04 0.000E+00

     total cpu time spent up to now is     5608.3 secs

     End of self-consistent calculation

          k = 0.0000 0.0000 0.0000 ( 18047 PWs)   bands (ev):

   -24.6495 -24.2324 -23.4479 -23.0838 -12.0265 -11.8846 -11.8761 -11.8127
   -10.1096  -9.0473  -7.5399  -7.0158  -6.4285  -6.4101  -6.3235  -6.1817

          k =-0.0153 0.2863 0.0000 ( 18132 PWs)   bands (ev):

   -24.5135 -24.1007 -23.6183 -23.2480 -12.1501 -12.1038 -11.6422 -11.5799
    -9.8784  -8.9638  -7.7399  -7.3448  -6.5415  -6.4422  -6.2128  -6.1011

          k = 0.0307-0.5725 0.0000 ( 18166 PWs)   bands (ev):

   -24.2870 -23.9013 -23.8557 -23.5024 -12.2162 -12.2012 -11.5081 -11.4305
    -9.5693  -8.8341  -8.0017  -7.7440  -6.5949  -6.4435  -6.1217  -6.0275

          k = 0.2575-0.1328 0.0000 ( 18109 PWs)   bands (ev):

   -24.5113 -24.0986 -23.6200 -23.2497 -12.1672 -12.1248 -11.6262 -11.5764
    -9.8752  -8.9647  -7.7344  -7.3382  -6.5388  -6.4410  -6.2070  -6.1020

          k = 0.2421 0.1535 0.0000 ( 18132 PWs)   bands (ev):

   -24.5129 -24.1056 -23.6185 -23.2426 -12.0700 -11.9204 -11.8939 -11.6816
    -9.7761  -8.8629  -7.9008  -7.3999  -6.4059  -6.3158  -6.2428  -6.2245

          k = 0.2882-0.7053 0.0000 ( 18147 PWs)   bands (ev):

   -24.2856 -23.9201 -23.8481 -23.4916 -12.1885 -12.1458 -11.6296 -11.4865
    -9.4059  -8.6192  -8.2712  -7.8562  -6.5082  -6.3957  -6.1185  -6.0570

          k = 0.2728-0.4190 0.0000 ( 18128 PWs)   bands (ev):

   -24.2829 -23.9019 -23.8545 -23.5063 -12.2363 -12.2326 -11.4846 -11.4253
    -9.5440  -8.8012  -8.0197  -7.7911  -6.5769  -6.4491  -6.0878  -6.0338

          k =-0.5150 0.2656 0.0000 ( 18184 PWs)   bands (ev):

   -24.2779 -23.9035 -23.8525 -23.5109 -12.2464 -12.2268 -11.4969 -11.4234
    -9.5694  -8.8406  -7.9868  -7.7189  -6.5890  -6.4435  -6.1108  -6.0263

          k =-0.5303 0.5518 0.0000 ( 18128 PWs)   bands (ev):

   -24.2809 -23.9204 -23.8477 -23.4956 -12.2041 -12.1617 -11.6213 -11.4808
    -9.4071  -8.6271  -8.2624  -7.8432  -6.5073  -6.3935  -6.1106  -6.0578

          k =-0.4843-0.3070 0.0000 ( 18166 PWs)   bands (ev):

   -24.2829 -23.9389 -23.8405 -23.4824 -12.1131 -11.9488 -11.8911 -11.5826
    -9.2219  -8.6909  -8.1722  -8.0357  -6.3633  -6.2993  -6.1919  -6.1739

     highest occupied level (ev):    -6.0263

!    total energy              =    -176.32086190 Ry
     estimated scf accuracy    <          1.3E-11 Ry

     convergence has been achieved in   2 iterations

     negative rho (up, down):  4.843E-04 0.000E+00

     Forces acting on atoms (cartesian axes, Ry/au):

     atom    1 type  1   force =     0.00000425   -0.00000130    0.00000533
     atom    2 type  1   force =    -0.00000435   -0.00000168    0.00000425
     atom    3 type  1   force =     0.00001087    0.00000099   -0.00001393
     atom    4 type  1   force =     0.00000155    0.00000132   -0.00000562
     atom    5 type  1   force =     0.00000181   -0.00000681   -0.00000257
     atom    6 type  1   force =    -0.00000624   -0.00000348    0.00000407
     atom    7 type  1   force =    -0.00000581    0.00000690    0.00000576
     atom    8 type  1   force =    -0.00000874    0.00001538    0.00001066
     atom    9 type  2   force =    -0.00000290   -0.00000294   -0.00000390
     atom   10 type  2   force =     0.00001117    0.00000149   -0.00001021
     atom   11 type  2   force =    -0.00000227    0.00000363    0.00001583
     atom   12 type  2   force =     0.00000066   -0.00001351   -0.00000969

     Total force =     0.000044     Total SCF correction =     0.000003

     Entering Dynamics:    iteration =    95

     <vel(dt)|acc(dt)> =   0.98630705

ATOMIC_POSITIONS (angstrom)
H             4.4733618469        3.7449341131       11.2229124629
H             5.3209595424        4.3038921799       10.0178937950
H             3.2968416841        1.1566067080        8.0887314644
H             3.1454567510        2.8648802876        9.3221100617
H             3.9929467126        3.4238995718        8.1170347260
H             6.3316177800        3.9816387894        8.0942911016
H             3.0066123817        1.8177081463       11.2512367141
H             2.1348083925        3.1870429896       11.2455653637
O             5.2907515398        4.2811990869       11.0187520490
O             3.1755993246        2.8875926380        8.3212507397
O             5.4272937846        4.3693370041        8.2643395177
O             3.0391367106        2.7993752437       11.0755680820



     Writing config-only to output data dir ./output/f-BH.save/
     NEW-OLD atomic charge density approx. for the potential

     negative rho (up, down):  4.843E-04 0.000E+00

     total cpu time spent up to now is     5621.1 secs

     per-process dynamical memory:   210.4 Mb

     Self-consistent Calculation

     iteration #  1     ecut=    60.00 Ry     beta= 0.70
     Davidson diagonalization with overlap
     ethr =  1.00E-06,  avg # of iterations =  2.0

     Threshold (ethr) on eigenvalues was too large:
     Diagonalizing with lowered threshold

     Davidson diagonalization with overlap
     ethr =  4.31E-12,  avg # of iterations =  4.2

     negative rho (up, down):  4.843E-04 0.000E+00

     total cpu time spent up to now is     5633.6 secs

     total energy              =    -176.32086190 Ry
     estimated scf accuracy    <          2.5E-09 Ry

     iteration #  2     ecut=    60.00 Ry     beta= 0.70
     Davidson diagonalization with overlap
     ethr =  7.90E-12,  avg # of iterations =  2.0

     negative rho (up, down):  4.843E-04 0.000E+00

     total cpu time spent up to now is     5638.7 secs

     total energy              =    -176.32086190 Ry
     estimated scf accuracy    <          1.2E-10 Ry

     iteration #  3     ecut=    60.00 Ry     beta= 0.70
     Davidson diagonalization with overlap
     ethr =  3.60E-13,  avg # of iterations =  2.2

     negative rho (up, down):  4.843E-04 0.000E+00

     total cpu time spent up to now is     5644.2 secs

     End of self-consistent calculation

          k = 0.0000 0.0000 0.0000 ( 18047 PWs)   bands (ev):

   -24.6495 -24.2324 -23.4479 -23.0838 -12.0265 -11.8846 -11.8761 -11.8127
   -10.1096  -9.0473  -7.5400  -7.0158  -6.4285  -6.4100  -6.3235  -6.1817

          k =-0.0153 0.2863 0.0000 ( 18132 PWs)   bands (ev):

   -24.5135 -24.1007 -23.6183 -23.2480 -12.1501 -12.1038 -11.6422 -11.5799
    -9.8784  -8.9637  -7.7399  -7.3448  -6.5415  -6.4422  -6.2127  -6.1011

          k = 0.0307-0.5725 0.0000 ( 18166 PWs)   bands (ev):

   -24.2870 -23.9013 -23.8557 -23.5024 -12.2162 -12.2012 -11.5081 -11.4305
    -9.5694  -8.8341  -8.0017  -7.7440  -6.5949  -6.4435  -6.1217  -6.0274

          k = 0.2575-0.1328 0.0000 ( 18109 PWs)   bands (ev):

   -24.5113 -24.0986 -23.6200 -23.2497 -12.1672 -12.1248 -11.6262 -11.5764
    -9.8753  -8.9646  -7.7344  -7.3382  -6.5388  -6.4410  -6.2070  -6.1020

          k = 0.2421 0.1535 0.0000 ( 18132 PWs)   bands (ev):

   -24.5129 -24.1056 -23.6184 -23.2426 -12.0700 -11.9204 -11.8939 -11.6816
    -9.7761  -8.8629  -7.9008  -7.3998  -6.4059  -6.3158  -6.2428  -6.2245

          k = 0.2882-0.7053 0.0000 ( 18147 PWs)   bands (ev):

   -24.2856 -23.9201 -23.8481 -23.4916 -12.1885 -12.1458 -11.6296 -11.4865
    -9.4059  -8.6192  -8.2712  -7.8562  -6.5082  -6.3957  -6.1185  -6.0570

          k = 0.2728-0.4190 0.0000 ( 18128 PWs)   bands (ev):

   -24.2828 -23.9019 -23.8544 -23.5063 -12.2364 -12.2326 -11.4845 -11.4253
    -9.5440  -8.8012  -8.0197  -7.7911  -6.5769  -6.4491  -6.0878  -6.0338

          k =-0.5150 0.2656 0.0000 ( 18184 PWs)   bands (ev):

   -24.2779 -23.9035 -23.8525 -23.5109 -12.2464 -12.2268 -11.4969 -11.4234
    -9.5694  -8.8405  -7.9868  -7.7189  -6.5890  -6.4435  -6.1108  -6.0263

          k =-0.5303 0.5518 0.0000 ( 18128 PWs)   bands (ev):

   -24.2809 -23.9204 -23.8476 -23.4956 -12.2041 -12.1617 -11.6213 -11.4808
    -9.4071  -8.6270  -8.2624  -7.8432  -6.5073  -6.3935  -6.1106  -6.0578

          k =-0.4843-0.3070 0.0000 ( 18166 PWs)   bands (ev):

   -24.2829 -23.9389 -23.8405 -23.4824 -12.1131 -11.9488 -11.8911 -11.5826
    -9.2219  -8.6909  -8.1722  -8.0357  -6.3633  -6.2993  -6.1919  -6.1739

     highest occupied level (ev):    -6.0263

!    total energy              =    -176.32086190 Ry
     estimated scf accuracy    <          1.3E-11 Ry

     convergence has been achieved in   3 iterations

     negative rho (up, down):  4.843E-04 0.000E+00

     Forces acting on atoms (cartesian axes, Ry/au):

     atom    1 type  1   force =     0.00000315   -0.00000160    0.00000531
     atom    2 type  1   force =    -0.00000432   -0.00000154    0.00000443
     atom    3 type  1   force =     0.00000992    0.00000214   -0.00001302
     atom    4 type  1   force =     0.00000111    0.00000082   -0.00000456
     atom    5 type  1   force =     0.00000181   -0.00000641   -0.00000244
     atom    6 type  1   force =    -0.00000666   -0.00000370    0.00000430
     atom    7 type  1   force =    -0.00000627    0.00000661    0.00000555
     atom    8 type  1   force =    -0.00000740    0.00001393    0.00000983
     atom    9 type  2   force =    -0.00000203   -0.00000195   -0.00000327
     atom   10 type  2   force =     0.00001074    0.00000113   -0.00001185
     atom   11 type  2   force =    -0.00000058    0.00000191    0.00001403
     atom   12 type  2   force =     0.00000055   -0.00001133   -0.00000831

     Total force =     0.000040     Total SCF correction =     0.000006
     SCF correction compared to forces is large: reduce conv_thr to get better values

     Entering Dynamics:    iteration =    96

     <vel(dt)|acc(dt)> =   0.98286091

ATOMIC_POSITIONS (angstrom)
H             4.4733605269        3.7448779535       11.2229178885
H             5.3209514812        4.3038762842       10.0179072206
H             3.2968585593        1.1566465088        8.0887217448
H             3.1454645208        2.8648974740        9.3220903136
H             3.9929587216        3.4239437800        8.1170279868
H             6.3316231628        3.9816743370        8.0943038276
H             3.0065911987        1.8176739672       11.2512461522
H             2.1347959060        3.1870136886       11.2455624582
O             5.2907467049        4.2811503874       11.0187649246
O             3.1756103911        2.8876355920        8.3212303470
O             5.4273068233        4.3693834525        8.2643668884
O             3.0391184543        2.7993333330       11.0755463254



     Writing config-only to output data dir ./output/f-BH.save/
     NEW-OLD atomic charge density approx. for the potential

     negative rho (up, down):  4.843E-04 0.000E+00

     total cpu time spent up to now is     5656.9 secs

     per-process dynamical memory:   210.4 Mb

     Self-consistent Calculation

     iteration #  1     ecut=    60.00 Ry     beta= 0.70
     Davidson diagonalization with overlap
     ethr =  1.00E-06,  avg # of iterations =  2.0

     Threshold (ethr) on eigenvalues was too large:
     Diagonalizing with lowered threshold

     Davidson diagonalization with overlap
     ethr =  7.91E-12,  avg # of iterations =  4.0

     negative rho (up, down):  4.843E-04 0.000E+00

     total cpu time spent up to now is     5668.9 secs

     total energy              =    -176.32086190 Ry
     estimated scf accuracy    <          4.6E-09 Ry

     iteration #  2     ecut=    60.00 Ry     beta= 0.70
     Davidson diagonalization with overlap
     ethr =  1.44E-11,  avg # of iterations =  2.0

     negative rho (up, down):  4.843E-04 0.000E+00

     total cpu time spent up to now is     5673.8 secs

     total energy              =    -176.32086190 Ry
     estimated scf accuracy    <          2.2E-10 Ry

     iteration #  3     ecut=    60.00 Ry     beta= 0.70
     Davidson diagonalization with overlap
     ethr =  6.88E-13,  avg # of iterations =  2.4

     negative rho (up, down):  4.843E-04 0.000E+00

     total cpu time spent up to now is     5679.3 secs

     End of self-consistent calculation

          k = 0.0000 0.0000 0.0000 ( 18047 PWs)   bands (ev):

   -24.6495 -24.2324 -23.4478 -23.0838 -12.0265 -11.8846 -11.8761 -11.8127
   -10.1096  -9.0472  -7.5400  -7.0157  -6.4285  -6.4100  -6.3235  -6.1817

          k =-0.0153 0.2863 0.0000 ( 18132 PWs)   bands (ev):

   -24.5135 -24.1007 -23.6183 -23.2480 -12.1501 -12.1038 -11.6422 -11.5799
    -9.8784  -8.9637  -7.7399  -7.3447  -6.5415  -6.4422  -6.2127  -6.1011

          k = 0.0307-0.5725 0.0000 ( 18166 PWs)   bands (ev):

   -24.2870 -23.9013 -23.8557 -23.5024 -12.2162 -12.2012 -11.5080 -11.4304
    -9.5694  -8.8340  -8.0017  -7.7439  -6.5949  -6.4435  -6.1217  -6.0274

          k = 0.2575-0.1328 0.0000 ( 18109 PWs)   bands (ev):

   -24.5113 -24.0986 -23.6200 -23.2497 -12.1673 -12.1248 -11.6261 -11.5763
    -9.8752  -8.9645  -7.7344  -7.3381  -6.5387  -6.4410  -6.2069  -6.1020

          k = 0.2421 0.1535 0.0000 ( 18132 PWs)   bands (ev):

   -24.5129 -24.1056 -23.6184 -23.2426 -12.0700 -11.9204 -11.8939 -11.6816
    -9.7761  -8.8628  -7.9008  -7.3998  -6.4059  -6.3158  -6.2428  -6.2245

          k = 0.2882-0.7053 0.0000 ( 18147 PWs)   bands (ev):

   -24.2856 -23.9200 -23.8481 -23.4916 -12.1885 -12.1458 -11.6296 -11.4864
    -9.4059  -8.6191  -8.2711  -7.8561  -6.5082  -6.3956  -6.1184  -6.0570

          k = 0.2728-0.4190 0.0000 ( 18128 PWs)   bands (ev):

   -24.2828 -23.9018 -23.8544 -23.5063 -12.2364 -12.2326 -11.4845 -11.4252
    -9.5441  -8.8011  -8.0197  -7.7911  -6.5769  -6.4491  -6.0877  -6.0338

          k =-0.5150 0.2656 0.0000 ( 18184 PWs)   bands (ev):

   -24.2778 -23.9035 -23.8525 -23.5109 -12.2464 -12.2267 -11.4969 -11.4234
    -9.5694  -8.8405  -7.9869  -7.7189  -6.5890  -6.4435  -6.1108  -6.0263

          k =-0.5303 0.5518 0.0000 ( 18128 PWs)   bands (ev):

   -24.2809 -23.9203 -23.8476 -23.4956 -12.2041 -12.1617 -11.6213 -11.4807
    -9.4071  -8.6269  -8.2625  -7.8432  -6.5073  -6.3935  -6.1106  -6.0578

          k =-0.4843-0.3070 0.0000 ( 18166 PWs)   bands (ev):

   -24.2828 -23.9388 -23.8405 -23.4824 -12.1131 -11.9488 -11.8911 -11.5826
    -9.2219  -8.6909  -8.1721  -8.0357  -6.3633  -6.2993  -6.1919  -6.1739

     highest occupied level (ev):    -6.0263

!    total energy              =    -176.32086190 Ry
     estimated scf accuracy    <          4.7E-11 Ry

     convergence has been achieved in   3 iterations

     negative rho (up, down):  4.843E-04 0.000E+00

     Forces acting on atoms (cartesian axes, Ry/au):

     atom    1 type  1   force =     0.00000260   -0.00000115    0.00000422
     atom    2 type  1   force =    -0.00000404   -0.00000112    0.00000455
     atom    3 type  1   force =     0.00000916    0.00000162   -0.00001054
     atom    4 type  1   force =     0.00000090   -0.00000014   -0.00000604
     atom    5 type  1   force =     0.00000276   -0.00000501   -0.00000278
     atom    6 type  1   force =    -0.00000562   -0.00000336    0.00000402
     atom    7 type  1   force =    -0.00000580    0.00000546    0.00000371
     atom    8 type  1   force =    -0.00000554    0.00001239    0.00000805
     atom    9 type  2   force =    -0.00000241   -0.00000127   -0.00000155
     atom   10 type  2   force =     0.00001005    0.00000044   -0.00000912
     atom   11 type  2   force =    -0.00000173    0.00000054    0.00001166
     atom   12 type  2   force =    -0.00000032   -0.00000841   -0.00000620

     Total force =     0.000034     Total SCF correction =     0.000011
     SCF correction compared to forces is large: reduce conv_thr to get better values

     Entering Dynamics:    iteration =    97

     <vel(dt)|acc(dt)> =  -0.55494791

ATOMIC_POSITIONS (angstrom)
H             4.4733622508        3.7448798753       11.2229189541
H             5.3209517324        4.3038782093       10.0179074944
H             3.2968598729        1.1566420665        8.0887171251
H             3.1454642589        2.8648954627        9.3220891190
H             3.9929590165        3.4239397237        8.1170266584
H             6.3316223285        3.9816683366        8.0943044569
H             3.0065888623        1.8176799420       11.2512509627
H             2.1347954189        3.1870206574       11.2455627737
O             5.2907476482        4.2811529343       11.0187654214
O             3.1756108793        2.8876320834        8.3212290606
O             5.4273071812        4.3693798410        8.2643685310
O             3.0391170009        2.7993376259       11.0755455205



     Writing config-only to output data dir ./output/f-BH.save/
     NEW-OLD atomic charge density approx. for the potential

     negative rho (up, down):  4.843E-04 0.000E+00

     total cpu time spent up to now is     5692.1 secs

     per-process dynamical memory:   210.4 Mb

     Self-consistent Calculation

     iteration #  1     ecut=    60.00 Ry     beta= 0.70
     Davidson diagonalization with overlap
     ethr =  1.00E-06,  avg # of iterations =  1.0

     Threshold (ethr) on eigenvalues was too large:
     Diagonalizing with lowered threshold

     Davidson diagonalization with overlap
     ethr =  1.35E-13,  avg # of iterations =  4.9

     negative rho (up, down):  4.843E-04 0.000E+00

     total cpu time spent up to now is     5703.8 secs

     total energy              =    -176.32086190 Ry
     estimated scf accuracy    <          1.7E-10 Ry

     iteration #  2     ecut=    60.00 Ry     beta= 0.70
     Davidson diagonalization with overlap
     ethr =  5.43E-13,  avg # of iterations =  3.0

     negative rho (up, down):  4.843E-04 0.000E+00

     total cpu time spent up to now is     5710.4 secs

     total energy              =    -176.32086190 Ry
     estimated scf accuracy    <          1.9E-10 Ry

     iteration #  3     ecut=    60.00 Ry     beta= 0.70
     Davidson diagonalization with overlap
     ethr =  5.43E-13,  avg # of iterations =  2.0

     negative rho (up, down):  4.843E-04 0.000E+00

     total cpu time spent up to now is     5715.5 secs

     End of self-consistent calculation

          k = 0.0000 0.0000 0.0000 ( 18047 PWs)   bands (ev):

   -24.6494 -24.2324 -23.4478 -23.0838 -12.0264 -11.8846 -11.8761 -11.8127
   -10.1096  -9.0472  -7.5400  -7.0157  -6.4285  -6.4100  -6.3235  -6.1816

          k =-0.0153 0.2863 0.0000 ( 18132 PWs)   bands (ev):

   -24.5135 -24.1007 -23.6183 -23.2480 -12.1500 -12.1038 -11.6422 -11.5799
    -9.8784  -8.9637  -7.7399  -7.3447  -6.5415  -6.4422  -6.2127  -6.1011

          k = 0.0307-0.5725 0.0000 ( 18166 PWs)   bands (ev):

   -24.2870 -23.9013 -23.8556 -23.5024 -12.2162 -12.2012 -11.5080 -11.4304
    -9.5694  -8.8340  -8.0017  -7.7439  -6.5949  -6.4435  -6.1216  -6.0274

          k = 0.2575-0.1328 0.0000 ( 18109 PWs)   bands (ev):

   -24.5113 -24.0986 -23.6200 -23.2497 -12.1672 -12.1247 -11.6261 -11.5763
    -9.8752  -8.9645  -7.7344  -7.3381  -6.5387  -6.4410  -6.2069  -6.1019

          k = 0.2421 0.1535 0.0000 ( 18132 PWs)   bands (ev):

   -24.5129 -24.1056 -23.6184 -23.2426 -12.0700 -11.9203 -11.8939 -11.6816
    -9.7761  -8.8628  -7.9008  -7.3998  -6.4058  -6.3158  -6.2428  -6.2245

          k = 0.2882-0.7053 0.0000 ( 18147 PWs)   bands (ev):

   -24.2855 -23.9200 -23.8481 -23.4915 -12.1885 -12.1458 -11.6296 -11.4864
    -9.4059  -8.6191  -8.2711  -7.8561  -6.5082  -6.3956  -6.1184  -6.0569

          k = 0.2728-0.4190 0.0000 ( 18128 PWs)   bands (ev):

   -24.2828 -23.9018 -23.8544 -23.5062 -12.2364 -12.2326 -11.4845 -11.4252
    -9.5440  -8.8011  -8.0197  -7.7910  -6.5769  -6.4491  -6.0877  -6.0337

          k =-0.5150 0.2656 0.0000 ( 18184 PWs)   bands (ev):

   -24.2778 -23.9035 -23.8525 -23.5108 -12.2464 -12.2267 -11.4968 -11.4234
    -9.5694  -8.8404  -7.9869  -7.7189  -6.5890  -6.4435  -6.1108  -6.0263

          k =-0.5303 0.5518 0.0000 ( 18128 PWs)   bands (ev):

   -24.2809 -23.9203 -23.8476 -23.4956 -12.2041 -12.1617 -11.6212 -11.4807
    -9.4071  -8.6269  -8.2625  -7.8431  -6.5072  -6.3935  -6.1106  -6.0577

          k =-0.4843-0.3070 0.0000 ( 18166 PWs)   bands (ev):

   -24.2828 -23.9388 -23.8404 -23.4824 -12.1131 -11.9488 -11.8911 -11.5826
    -9.2219  -8.6909  -8.1721  -8.0357  -6.3633  -6.2993  -6.1918  -6.1738

     highest occupied level (ev):    -6.0263

!    total energy              =    -176.32086190 Ry
     estimated scf accuracy    <          7.2E-12 Ry

     convergence has been achieved in   3 iterations

     negative rho (up, down):  4.843E-04 0.000E+00

     Forces acting on atoms (cartesian axes, Ry/au):

     atom    1 type  1   force =     0.00000253   -0.00000115    0.00000410
     atom    2 type  1   force =    -0.00000400   -0.00000103    0.00000448
     atom    3 type  1   force =     0.00000912    0.00000061   -0.00000981
     atom    4 type  1   force =     0.00000093   -0.00000012   -0.00000582
     atom    5 type  1   force =     0.00000339   -0.00000435   -0.00000274
     atom    6 type  1   force =    -0.00000568   -0.00000299    0.00000407
     atom    7 type  1   force =    -0.00000574    0.00000517    0.00000318
     atom    8 type  1   force =    -0.00000549    0.00001214    0.00000775
     atom    9 type  2   force =    -0.00000223   -0.00000027   -0.00000252
     atom   10 type  2   force =     0.00000928   -0.00000074   -0.00000773
     atom   11 type  2   force =    -0.00000206   -0.00000026    0.00001090
     atom   12 type  2   force =    -0.00000005   -0.00000701   -0.00000586

     Total force =     0.000032     Total SCF correction =     0.000002

     Entering Dynamics:    iteration =    98

     <vel(dt)|acc(dt)> =   0.84647327

ATOMIC_POSITIONS (angstrom)
H             4.4733680905        3.7449100435       11.2229205239
H             5.3209555198        4.3038901678       10.0179017292
H             3.2968567529        1.1566124967        8.0887073401
H             3.1454601884        2.8648829637        9.3220945812
H             3.9929549508        3.4239083994        8.1170255420
H             6.3316167290        3.9816356825        8.0943008767
H             3.0065909009        1.8177112637       11.2512610858
H             2.1347995129        3.1870532742       11.2455662515
O             5.2907526445        4.2811816250       11.0187603456
O             3.1756074755        2.8876030437        8.3212334492
O             5.4273030235        4.3693504486        8.2643627694
O             3.0391206620        2.7993673493       11.0755515831



     Writing config-only to output data dir ./output/f-BH.save/
     NEW-OLD atomic charge density approx. for the potential

     negative rho (up, down):  4.843E-04 0.000E+00

     total cpu time spent up to now is     5728.3 secs

     per-process dynamical memory:   210.4 Mb

     Self-consistent Calculation

     iteration #  1     ecut=    60.00 Ry     beta= 0.70
     Davidson diagonalization with overlap
     ethr =  1.00E-06,  avg # of iterations =  2.0

     Threshold (ethr) on eigenvalues was too large:
     Diagonalizing with lowered threshold

     Davidson diagonalization with overlap
     ethr =  2.99E-12,  avg # of iterations =  4.1

     negative rho (up, down):  4.843E-04 0.000E+00

     total cpu time spent up to now is     5740.3 secs

     total energy              =    -176.32086190 Ry
     estimated scf accuracy    <          1.7E-09 Ry

     iteration #  2     ecut=    60.00 Ry     beta= 0.70
     Davidson diagonalization with overlap
     ethr =  5.42E-12,  avg # of iterations =  2.0

     negative rho (up, down):  4.843E-04 0.000E+00

     total cpu time spent up to now is     5745.5 secs

     total energy              =    -176.32086190 Ry
     estimated scf accuracy    <          1.6E-10 Ry

     iteration #  3     ecut=    60.00 Ry     beta= 0.70
     Davidson diagonalization with overlap
     ethr =  5.06E-13,  avg # of iterations =  2.6

     negative rho (up, down):  4.843E-04 0.000E+00

     total cpu time spent up to now is     5751.3 secs

     End of self-consistent calculation

          k = 0.0000 0.0000 0.0000 ( 18047 PWs)   bands (ev):

   -24.6494 -24.2324 -23.4478 -23.0838 -12.0264 -11.8846 -11.8761 -11.8127
   -10.1096  -9.0472  -7.5399  -7.0157  -6.4285  -6.4100  -6.3235  -6.1816

          k =-0.0153 0.2863 0.0000 ( 18132 PWs)   bands (ev):

   -24.5134 -24.1007 -23.6183 -23.2480 -12.1500 -12.1038 -11.6421 -11.5799
    -9.8784  -8.9637  -7.7399  -7.3447  -6.5415  -6.4422  -6.2127  -6.1010

          k = 0.0307-0.5725 0.0000 ( 18166 PWs)   bands (ev):

   -24.2870 -23.9013 -23.8556 -23.5024 -12.2162 -12.2011 -11.5080 -11.4304
    -9.5694  -8.8340  -8.0017  -7.7439  -6.5949  -6.4435  -6.1216  -6.0274

          k = 0.2575-0.1328 0.0000 ( 18109 PWs)   bands (ev):

   -24.5113 -24.0986 -23.6199 -23.2497 -12.1672 -12.1247 -11.6261 -11.5763
    -9.8752  -8.9645  -7.7344  -7.3381  -6.5387  -6.4410  -6.2069  -6.1019

          k = 0.2421 0.1535 0.0000 ( 18132 PWs)   bands (ev):

   -24.5129 -24.1055 -23.6184 -23.2426 -12.0699 -11.9203 -11.8939 -11.6816
    -9.7761  -8.8628  -7.9008  -7.3998  -6.4058  -6.3157  -6.2428  -6.2245

          k = 0.2882-0.7053 0.0000 ( 18147 PWs)   bands (ev):

   -24.2855 -23.9200 -23.8481 -23.4915 -12.1885 -12.1458 -11.6296 -11.4864
    -9.4059  -8.6191  -8.2711  -7.8561  -6.5082  -6.3956  -6.1184  -6.0569

          k = 0.2728-0.4190 0.0000 ( 18128 PWs)   bands (ev):

   -24.2828 -23.9018 -23.8544 -23.5062 -12.2363 -12.2326 -11.4845 -11.4252
    -9.5440  -8.8011  -8.0197  -7.7910  -6.5769  -6.4491  -6.0877  -6.0337

          k =-0.5150 0.2656 0.0000 ( 18184 PWs)   bands (ev):

   -24.2778 -23.9035 -23.8524 -23.5108 -12.2464 -12.2267 -11.4968 -11.4234
    -9.5694  -8.8404  -7.9869  -7.7189  -6.5890  -6.4435  -6.1107  -6.0263

          k =-0.5303 0.5518 0.0000 ( 18128 PWs)   bands (ev):

   -24.2809 -23.9203 -23.8476 -23.4955 -12.2040 -12.1616 -11.6212 -11.4807
    -9.4071  -8.6269  -8.2624  -7.8431  -6.5072  -6.3935  -6.1106  -6.0577

          k =-0.4843-0.3070 0.0000 ( 18166 PWs)   bands (ev):

   -24.2828 -23.9388 -23.8404 -23.4823 -12.1131 -11.9488 -11.8911 -11.5826
    -9.2219  -8.6909  -8.1721  -8.0357  -6.3632  -6.2992  -6.1918  -6.1738

     highest occupied level (ev):    -6.0263

!    total energy              =    -176.32086190 Ry
     estimated scf accuracy    <          6.0E-11 Ry

     convergence has been achieved in   3 iterations

     negative rho (up, down):  4.843E-04 0.000E+00

     Forces acting on atoms (cartesian axes, Ry/au):

     atom    1 type  1   force =     0.00000264   -0.00000118    0.00000423
     atom    2 type  1   force =    -0.00000401   -0.00000082    0.00000470
     atom    3 type  1   force =     0.00000929    0.00000013   -0.00000903
     atom    4 type  1   force =     0.00000098   -0.00000019   -0.00000711
     atom    5 type  1   force =     0.00000358   -0.00000387   -0.00000258
     atom    6 type  1   force =    -0.00000465   -0.00000277    0.00000401
     atom    7 type  1   force =    -0.00000571    0.00000425    0.00000286
     atom    8 type  1   force =    -0.00000559    0.00001194    0.00000776
     atom    9 type  2   force =    -0.00000229   -0.00000004   -0.00000173
     atom   10 type  2   force =     0.00000733   -0.00000229   -0.00000804
     atom   11 type  2   force =    -0.00000100    0.00000122    0.00001028
     atom   12 type  2   force =    -0.00000057   -0.00000636   -0.00000535

     Total force =     0.000031     Total SCF correction =     0.000007
     SCF correction compared to forces is large: reduce conv_thr to get better values

     Entering Dynamics:    iteration =    99

     <vel(dt)|acc(dt)> =   0.99781562

ATOMIC_POSITIONS (angstrom)
H             4.4733807974        3.7449614881       11.2229257622
H             5.3209624165        4.3039116061       10.0178929665
H             3.2968533243        1.1565620004        8.0886910239
H             3.1454524794        2.8648623753        9.3221004618
H             3.9929471216        3.4238557487        8.1170206147
H             6.3316094122        3.9815806778        8.0942952451
H             3.0065899415        1.8177625559       11.2512823184
H             2.1348048445        3.1871088728       11.2455701744
O             5.2907627967        4.2812308819       11.0187530106
O             3.1756002052        2.8875535190        8.3212377282
O             5.4272982537        4.3693014281        8.2643543433
O             3.0391248579        2.7994156041       11.0755624288



     Writing config-only to output data dir ./output/f-BH.save/
     NEW-OLD atomic charge density approx. for the potential

     negative rho (up, down):  4.843E-04 0.000E+00

     total cpu time spent up to now is     5764.1 secs

     per-process dynamical memory:   210.4 Mb

     Self-consistent Calculation

     iteration #  1     ecut=    60.00 Ry     beta= 0.70
     Davidson diagonalization with overlap
     ethr =  1.00E-06,  avg # of iterations =  2.0

     Threshold (ethr) on eigenvalues was too large:
     Diagonalizing with lowered threshold

     Davidson diagonalization with overlap
     ethr =  8.23E-12,  avg # of iterations =  4.0

     negative rho (up, down):  4.843E-04 0.000E+00

     total cpu time spent up to now is     5776.2 secs

     total energy              =    -176.32086190 Ry
     estimated scf accuracy    <          4.9E-09 Ry

     iteration #  2     ecut=    60.00 Ry     beta= 0.70
     Davidson diagonalization with overlap
     ethr =  1.52E-11,  avg # of iterations =  2.0

     negative rho (up, down):  4.843E-04 0.000E+00

     total cpu time spent up to now is     5781.4 secs

     total energy              =    -176.32086190 Ry
     estimated scf accuracy    <          4.1E-10 Ry

     iteration #  3     ecut=    60.00 Ry     beta= 0.70
     Davidson diagonalization with overlap
     ethr =  1.27E-12,  avg # of iterations =  3.0

     negative rho (up, down):  4.843E-04 0.000E+00

     total cpu time spent up to now is     5787.4 secs

     total energy              =    -176.32086190 Ry
     estimated scf accuracy    <          1.7E-10 Ry

     iteration #  4     ecut=    60.00 Ry     beta= 0.70
     Davidson diagonalization with overlap
     ethr =  5.30E-13,  avg # of iterations =  2.4

     negative rho (up, down):  4.843E-04 0.000E+00

     total cpu time spent up to now is     5792.5 secs

     End of self-consistent calculation

          k = 0.0000 0.0000 0.0000 ( 18047 PWs)   bands (ev):

   -24.6494 -24.2323 -23.4478 -23.0838 -12.0264 -11.8845 -11.8760 -11.8126
   -10.1096  -9.0472  -7.5399  -7.0157  -6.4284  -6.4100  -6.3234  -6.1816

          k =-0.0153 0.2863 0.0000 ( 18132 PWs)   bands (ev):

   -24.5134 -24.1006 -23.6182 -23.2480 -12.1500 -12.1037 -11.6421 -11.5799
    -9.8783  -8.9637  -7.7399  -7.3447  -6.5415  -6.4422  -6.2127  -6.1010

          k = 0.0307-0.5725 0.0000 ( 18166 PWs)   bands (ev):

   -24.2870 -23.9013 -23.8556 -23.5024 -12.2161 -12.2011 -11.5080 -11.4304
    -9.5693  -8.8340  -8.0016  -7.7439  -6.5948  -6.4435  -6.1216  -6.0274

          k = 0.2575-0.1328 0.0000 ( 18109 PWs)   bands (ev):

   -24.5112 -24.0986 -23.6199 -23.2497 -12.1672 -12.1247 -11.6261 -11.5763
    -9.8752  -8.9645  -7.7344  -7.3381  -6.5387  -6.4410  -6.2069  -6.1019

          k = 0.2421 0.1535 0.0000 ( 18132 PWs)   bands (ev):

   -24.5128 -24.1055 -23.6184 -23.2426 -12.0699 -11.9203 -11.8938 -11.6815
    -9.7760  -8.8628  -7.9008  -7.3998  -6.4058  -6.3157  -6.2427  -6.2245

          k = 0.2882-0.7053 0.0000 ( 18147 PWs)   bands (ev):

   -24.2855 -23.9200 -23.8481 -23.4915 -12.1885 -12.1457 -11.6296 -11.4864
    -9.4059  -8.6191  -8.2711  -7.8561  -6.5082  -6.3956  -6.1184  -6.0569

          k = 0.2728-0.4190 0.0000 ( 18128 PWs)   bands (ev):

   -24.2828 -23.9018 -23.8544 -23.5062 -12.2363 -12.2325 -11.4845 -11.4252
    -9.5440  -8.8011  -8.0197  -7.7910  -6.5768  -6.4491  -6.0877  -6.0337

          k =-0.5150 0.2656 0.0000 ( 18184 PWs)   bands (ev):

   -24.2778 -23.9034 -23.8524 -23.5108 -12.2463 -12.2267 -11.4968 -11.4234
    -9.5693  -8.8404  -7.9868  -7.7188  -6.5890  -6.4435  -6.1107  -6.0262

          k =-0.5303 0.5518 0.0000 ( 18128 PWs)   bands (ev):

   -24.2808 -23.9203 -23.8476 -23.4955 -12.2040 -12.1616 -11.6212 -11.4807
    -9.4071  -8.6269  -8.2624  -7.8431  -6.5072  -6.3935  -6.1105  -6.0577

          k =-0.4843-0.3070 0.0000 ( 18166 PWs)   bands (ev):

   -24.2828 -23.9388 -23.8404 -23.4823 -12.1131 -11.9488 -11.8910 -11.5826
    -9.2219  -8.6909  -8.1721  -8.0356  -6.3632  -6.2992  -6.1918  -6.1738

     highest occupied level (ev):    -6.0262

!    total energy              =    -176.32086190 Ry
     estimated scf accuracy    <          3.4E-12 Ry

     convergence has been achieved in   4 iterations

     negative rho (up, down):  4.843E-04 0.000E+00

     Forces acting on atoms (cartesian axes, Ry/au):

     atom    1 type  1   force =     0.00000218   -0.00000179    0.00000401
     atom    2 type  1   force =    -0.00000402   -0.00000056    0.00000547
     atom    3 type  1   force =     0.00000942   -0.00000025   -0.00000800
     atom    4 type  1   force =     0.00000130   -0.00000065   -0.00000796
     atom    5 type  1   force =     0.00000378   -0.00000343   -0.00000274
     atom    6 type  1   force =    -0.00000390   -0.00000237    0.00000395
     atom    7 type  1   force =    -0.00000508    0.00000346    0.00000137
     atom    8 type  1   force =    -0.00000499    0.00001146    0.00000750
     atom    9 type  2   force =    -0.00000342   -0.00000130   -0.00000166
     atom   10 type  2   force =     0.00000842   -0.00000108   -0.00000669
     atom   11 type  2   force =    -0.00000345    0.00000200    0.00000993
     atom   12 type  2   force =    -0.00000024   -0.00000548   -0.00000519

     Total force =     0.000030     Total SCF correction =     0.000003
     SCF correction compared to forces is large: reduce conv_thr to get better values

     Entering Dynamics:    iteration =   100

     <vel(dt)|acc(dt)> =   0.09300574

ATOMIC_POSITIONS (angstrom)
H             4.4733824480        3.7449601386       11.2229287899
H             5.3209593739        4.3039111819       10.0178971025
H             3.2968604473        1.1565618110        8.0886849788
H             3.1454534616        2.8648618817        9.3220944456
H             3.9929499797        3.4238531573        8.1170185430
H             6.3316064607        3.9815788832        8.0942982310
H             3.0065861004        1.8177651680       11.2512833577
H             2.1348010727        3.1871175328       11.2455758423
O             5.2907602146        4.2812298989       11.0187517591
O             3.1756065736        2.8875526993        8.3212326741
O             5.4272956427        4.3693029413        8.2643618491
O             3.0391246754        2.7994114642       11.0755585047



     Writing config-only to output data dir ./output/f-BH.save/
     NEW-OLD atomic charge density approx. for the potential

     negative rho (up, down):  4.843E-04 0.000E+00

     total cpu time spent up to now is     5805.3 secs

     per-process dynamical memory:   210.4 Mb

     Self-consistent Calculation

     iteration #  1     ecut=    60.00 Ry     beta= 0.70
     Davidson diagonalization with overlap
     ethr =  1.00E-06,  avg # of iterations =  1.0

     Threshold (ethr) on eigenvalues was too large:
     Diagonalizing with lowered threshold

     Davidson diagonalization with overlap
     ethr =  2.06E-13,  avg # of iterations =  4.0

     negative rho (up, down):  4.843E-04 0.000E+00

     total cpu time spent up to now is     5816.9 secs

     total energy              =    -176.32086190 Ry
     estimated scf accuracy    <          1.6E-10 Ry

     iteration #  2     ecut=    60.00 Ry     beta= 0.70
     Davidson diagonalization with overlap
     ethr =  5.11E-13,  avg # of iterations =  3.0

     negative rho (up, down):  4.843E-04 0.000E+00

     total cpu time spent up to now is     5822.7 secs

     End of self-consistent calculation

          k = 0.0000 0.0000 0.0000 ( 18047 PWs)   bands (ev):

   -24.6494 -24.2323 -23.4478 -23.0838 -12.0264 -11.8845 -11.8760 -11.8126
   -10.1095  -9.0472  -7.5399  -7.0157  -6.4284  -6.4100  -6.3234  -6.1816

          k =-0.0153 0.2863 0.0000 ( 18132 PWs)   bands (ev):

   -24.5134 -24.1006 -23.6182 -23.2479 -12.1500 -12.1037 -11.6421 -11.5798
    -9.8783  -8.9636  -7.7399  -7.3446  -6.5415  -6.4421  -6.2126  -6.1010

          k = 0.0307-0.5725 0.0000 ( 18166 PWs)   bands (ev):

   -24.2870 -23.9012 -23.8556 -23.5024 -12.2161 -12.2011 -11.5080 -11.4304
    -9.5693  -8.8339  -8.0016  -7.7438  -6.5948  -6.4435  -6.1216  -6.0273

          k = 0.2575-0.1328 0.0000 ( 18109 PWs)   bands (ev):

   -24.5112 -24.0985 -23.6199 -23.2496 -12.1672 -12.1247 -11.6261 -11.5763
    -9.8752  -8.9645  -7.7344  -7.3381  -6.5387  -6.4409  -6.2068  -6.1019

          k = 0.2421 0.1535 0.0000 ( 18132 PWs)   bands (ev):

   -24.5128 -24.1055 -23.6184 -23.2426 -12.0699 -11.9203 -11.8938 -11.6815
    -9.7760  -8.8628  -7.9008  -7.3997  -6.4058  -6.3157  -6.2427  -6.2245

          k = 0.2882-0.7053 0.0000 ( 18147 PWs)   bands (ev):

   -24.2855 -23.9200 -23.8480 -23.4915 -12.1884 -12.1457 -11.6295 -11.4864
    -9.4059  -8.6190  -8.2711  -7.8561  -6.5082  -6.3956  -6.1184  -6.0569

          k = 0.2728-0.4190 0.0000 ( 18128 PWs)   bands (ev):

   -24.2828 -23.9018 -23.8544 -23.5062 -12.2363 -12.2325 -11.4845 -11.4252
    -9.5440  -8.8011  -8.0196  -7.7910  -6.5768  -6.4490  -6.0877  -6.0337

          k =-0.5150 0.2656 0.0000 ( 18184 PWs)   bands (ev):

   -24.2778 -23.9034 -23.8524 -23.5108 -12.2463 -12.2267 -11.4968 -11.4234
    -9.5693  -8.8404  -7.9868  -7.7188  -6.5890  -6.4435  -6.1107  -6.0262

          k =-0.5303 0.5518 0.0000 ( 18128 PWs)   bands (ev):

   -24.2808 -23.9203 -23.8476 -23.4955 -12.2040 -12.1616 -11.6212 -11.4807
    -9.4070  -8.6269  -8.2624  -7.8431  -6.5072  -6.3935  -6.1105  -6.0577

          k =-0.4843-0.3070 0.0000 ( 18166 PWs)   bands (ev):

   -24.2828 -23.9388 -23.8404 -23.4823 -12.1130 -11.9487 -11.8910 -11.5826
    -9.2218  -8.6908  -8.1721  -8.0356  -6.3632  -6.2992  -6.1918  -6.1738

     highest occupied level (ev):    -6.0262

!    total energy              =    -176.32086190 Ry
     estimated scf accuracy    <          4.8E-11 Ry

     convergence has been achieved in   2 iterations

     negative rho (up, down):  4.843E-04 0.000E+00

     Forces acting on atoms (cartesian axes, Ry/au):

     atom    1 type  1   force =    -0.00000046   -0.00000375    0.00000401
     atom    2 type  1   force =    -0.00000407   -0.00000025   -0.00000210
     atom    3 type  1   force =     0.00000765   -0.00000107   -0.00000633
     atom    4 type  1   force =     0.00000160   -0.00000106   -0.00000691
     atom    5 type  1   force =     0.00000849    0.00000026   -0.00000383
     atom    6 type  1   force =    -0.00000657   -0.00000210    0.00000472
     atom    7 type  1   force =    -0.00000572   -0.00000388    0.00000265
     atom    8 type  1   force =     0.00000705    0.00000504    0.00000406
     atom    9 type  2   force =    -0.00000043   -0.00000042    0.00000581
     atom   10 type  2   force =     0.00000303   -0.00000398   -0.00000657
     atom   11 type  2   force =     0.00000153    0.00000315    0.00000865
     atom   12 type  2   force =    -0.00001211    0.00000806   -0.00000417

     Total force =     0.000030     Total SCF correction =     0.000005
     SCF correction compared to forces is large: reduce conv_thr to get better values

     Entering Dynamics:    iteration =   101

     <vel(dt)|acc(dt)> =   0.54842733

ATOMIC_POSITIONS (angstrom)
H             4.4733821529        3.7449577197       11.2229313754
H             5.3209567505        4.3039110186       10.0178957506
H             3.2968653826        1.1565611195        8.0886808955
H             3.1454544950        2.8648611967        9.3220899898
H             3.9929554513        3.4238533274        8.1170160766
H             6.3316022251        3.9815775272        8.0943012744
H             3.0065824149        1.8177626661       11.2512850658
H             2.1348056203        3.1871207843       11.2455784617
O             5.2907599368        4.2812296311       11.0187555046
O             3.1756085264        2.8875501313        8.3212284355
O             5.4272966306        4.3693049746        8.2643674289
O             3.0391168645        2.7994166618       11.0755558190



     Writing config-only to output data dir ./output/f-BH.save/
     NEW-OLD atomic charge density approx. for the potential

     negative rho (up, down):  4.843E-04 0.000E+00

     total cpu time spent up to now is     5835.5 secs

     per-process dynamical memory:   210.4 Mb

     Self-consistent Calculation

     iteration #  1     ecut=    60.00 Ry     beta= 0.70
     Davidson diagonalization with overlap
     ethr =  1.00E-06,  avg # of iterations =  1.0

     Threshold (ethr) on eigenvalues was too large:
     Diagonalizing with lowered threshold

     Davidson diagonalization with overlap
     ethr =  2.42E-13,  avg # of iterations =  4.4

     negative rho (up, down):  4.843E-04 0.000E+00

     total cpu time spent up to now is     5847.0 secs

     total energy              =    -176.32086191 Ry
     estimated scf accuracy    <          2.5E-10 Ry

     iteration #  2     ecut=    60.00 Ry     beta= 0.70
     Davidson diagonalization with overlap
     ethr =  7.90E-13,  avg # of iterations =  3.0

     negative rho (up, down):  4.843E-04 0.000E+00

     total cpu time spent up to now is     5853.3 secs

     total energy              =    -176.32086191 Ry
     estimated scf accuracy    <          1.6E-10 Ry

     iteration #  3     ecut=    60.00 Ry     beta= 0.70
     Davidson diagonalization with overlap
     ethr =  5.12E-13,  avg # of iterations =  2.1

     negative rho (up, down):  4.843E-04 0.000E+00

     total cpu time spent up to now is     5858.5 secs

     End of self-consistent calculation

          k = 0.0000 0.0000 0.0000 ( 18047 PWs)   bands (ev):

   -24.6494 -24.2323 -23.4478 -23.0838 -12.0264 -11.8845 -11.8760 -11.8126
   -10.1095  -9.0472  -7.5399  -7.0157  -6.4284  -6.4100  -6.3234  -6.1816

          k =-0.0153 0.2863 0.0000 ( 18132 PWs)   bands (ev):

   -24.5134 -24.1006 -23.6182 -23.2479 -12.1500 -12.1037 -11.6421 -11.5798
    -9.8783  -8.9636  -7.7399  -7.3446  -6.5415  -6.4421  -6.2126  -6.1010

          k = 0.0307-0.5725 0.0000 ( 18166 PWs)   bands (ev):

   -24.2869 -23.9012 -23.8556 -23.5023 -12.2161 -12.2011 -11.5080 -11.4304
    -9.5693  -8.8339  -8.0016  -7.7438  -6.5948  -6.4435  -6.1216  -6.0273

          k = 0.2575-0.1328 0.0000 ( 18109 PWs)   bands (ev):

   -24.5112 -24.0985 -23.6199 -23.2496 -12.1672 -12.1247 -11.6261 -11.5763
    -9.8752  -8.9645  -7.7344  -7.3380  -6.5387  -6.4409  -6.2068  -6.1019

          k = 0.2421 0.1535 0.0000 ( 18132 PWs)   bands (ev):

   -24.5128 -24.1055 -23.6184 -23.2425 -12.0699 -11.9203 -11.8938 -11.6815
    -9.7760  -8.8628  -7.9008  -7.3997  -6.4058  -6.3157  -6.2427  -6.2244

          k = 0.2882-0.7053 0.0000 ( 18147 PWs)   bands (ev):

   -24.2855 -23.9200 -23.8480 -23.4915 -12.1884 -12.1457 -11.6295 -11.4864
    -9.4059  -8.6190  -8.2711  -7.8561  -6.5082  -6.3956  -6.1184  -6.0569

          k = 0.2728-0.4190 0.0000 ( 18128 PWs)   bands (ev):

   -24.2828 -23.9018 -23.8544 -23.5062 -12.2363 -12.2325 -11.4845 -11.4252
    -9.5440  -8.8011  -8.0197  -7.7910  -6.5768  -6.4490  -6.0877  -6.0337

          k =-0.5150 0.2656 0.0000 ( 18184 PWs)   bands (ev):

   -24.2778 -23.9034 -23.8524 -23.5108 -12.2463 -12.2267 -11.4968 -11.4233
    -9.5693  -8.8404  -7.9868  -7.7188  -6.5890  -6.4435  -6.1107  -6.0262

          k =-0.5303 0.5518 0.0000 ( 18128 PWs)   bands (ev):

   -24.2808 -23.9203 -23.8476 -23.4955 -12.2040 -12.1616 -11.6212 -11.4807
    -9.4071  -8.6269  -8.2624  -7.8431  -6.5072  -6.3935  -6.1105  -6.0577

          k =-0.4843-0.3070 0.0000 ( 18166 PWs)   bands (ev):

   -24.2828 -23.9388 -23.8404 -23.4823 -12.1130 -11.9487 -11.8910 -11.5825
    -9.2218  -8.6909  -8.1720  -8.0356  -6.3632  -6.2992  -6.1918  -6.1738

     highest occupied level (ev):    -6.0262

!    total energy              =    -176.32086191 Ry
     estimated scf accuracy    <          2.2E-12 Ry

     convergence has been achieved in   3 iterations

     negative rho (up, down):  4.843E-04 0.000E+00

     Forces acting on atoms (cartesian axes, Ry/au):

     atom    1 type  1   force =     0.00000027   -0.00000254    0.00000390
     atom    2 type  1   force =    -0.00000363   -0.00000016    0.00000500
     atom    3 type  1   force =     0.00000709    0.00000051   -0.00000593
     atom    4 type  1   force =     0.00000118   -0.00000114   -0.00000632
     atom    5 type  1   force =     0.00000376   -0.00000248   -0.00000277
     atom    6 type  1   force =    -0.00000279   -0.00000379    0.00000383
     atom    7 type  1   force =    -0.00000595    0.00000768    0.00000025
     atom    8 type  1   force =    -0.00000704    0.00001027    0.00000664
     atom    9 type  2   force =    -0.00000257    0.00000005   -0.00000018
     atom   10 type  2   force =     0.00000765   -0.00000089   -0.00000791
     atom   11 type  2   force =    -0.00000135    0.00000202    0.00000778
     atom   12 type  2   force =     0.00000339   -0.00000953   -0.00000429

     Total force =     0.000029     Total SCF correction =     0.000003

     Entering Dynamics:    iteration =   102

     <vel(dt)|acc(dt)> =   0.37866235

ATOMIC_POSITIONS (angstrom)
H             4.4733822827        3.7449564880       11.2229332678
H             5.3209549908        4.3039109425       10.0178981779
H             3.2968688195        1.1565613666        8.0886780193
H             3.1454550664        2.8648606421        9.3220869225
H             3.9929572745        3.4238521234        8.1170147347
H             6.3316008704        3.9815756880        8.0943031324
H             3.0065795280        1.8177663925       11.2512851860
H             2.1348022083        3.1871257650       11.2455816799
O             5.2907586897        4.2812296560       11.0187554172
O             3.1756122372        2.8875496995        8.3212246005
O             5.4272959763        4.3693059558        8.2643712036
O             3.0391185069        2.7994120387       11.0755537360



     Writing config-only to output data dir ./output/f-BH.save/
     NEW-OLD atomic charge density approx. for the potential

     negative rho (up, down):  4.843E-04 0.000E+00

     total cpu time spent up to now is     5871.3 secs

     per-process dynamical memory:   210.4 Mb

     Self-consistent Calculation

     iteration #  1     ecut=    60.00 Ry     beta= 0.70
     Davidson diagonalization with overlap
     ethr =  1.00E-06,  avg # of iterations =  1.0

     Threshold (ethr) on eigenvalues was too large:
     Diagonalizing with lowered threshold

     Davidson diagonalization with overlap
     ethr =  8.92E-14,  avg # of iterations =  4.3

     negative rho (up, down):  4.843E-04 0.000E+00

     total cpu time spent up to now is     5882.7 secs

     End of self-consistent calculation

          k = 0.0000 0.0000 0.0000 ( 18047 PWs)   bands (ev):

   -24.6494 -24.2323 -23.4478 -23.0838 -12.0264 -11.8845 -11.8760 -11.8126
   -10.1096  -9.0472  -7.5399  -7.0157  -6.4284  -6.4099  -6.3234  -6.1816

          k =-0.0153 0.2863 0.0000 ( 18132 PWs)   bands (ev):

   -24.5134 -24.1006 -23.6182 -23.2479 -12.1500 -12.1037 -11.6421 -11.5798
    -9.8783  -8.9636  -7.7399  -7.3446  -6.5415  -6.4421  -6.2126  -6.1010

          k = 0.0307-0.5725 0.0000 ( 18166 PWs)   bands (ev):

   -24.2869 -23.9013 -23.8556 -23.5024 -12.2161 -12.2011 -11.5080 -11.4304
    -9.5693  -8.8339  -8.0016  -7.7438  -6.5948  -6.4435  -6.1216  -6.0273

          k = 0.2575-0.1328 0.0000 ( 18109 PWs)   bands (ev):

   -24.5112 -24.0985 -23.6199 -23.2496 -12.1672 -12.1247 -11.6260 -11.5763
    -9.8752  -8.9645  -7.7344  -7.3381  -6.5387  -6.4410  -6.2068  -6.1019

          k = 0.2421 0.1535 0.0000 ( 18132 PWs)   bands (ev):

   -24.5128 -24.1055 -23.6184 -23.2425 -12.0699 -11.9203 -11.8938 -11.6815
    -9.7760  -8.8628  -7.9008  -7.3997  -6.4058  -6.3157  -6.2427  -6.2244

          k = 0.2882-0.7053 0.0000 ( 18147 PWs)   bands (ev):

   -24.2855 -23.9200 -23.8480 -23.4915 -12.1884 -12.1457 -11.6295 -11.4864
    -9.4059  -8.6190  -8.2711  -7.8561  -6.5082  -6.3956  -6.1184  -6.0569

          k = 0.2728-0.4190 0.0000 ( 18128 PWs)   bands (ev):

   -24.2828 -23.9018 -23.8544 -23.5062 -12.2363 -12.2325 -11.4845 -11.4252
    -9.5440  -8.8011  -8.0197  -7.7910  -6.5768  -6.4490  -6.0877  -6.0337

          k =-0.5150 0.2656 0.0000 ( 18184 PWs)   bands (ev):

   -24.2778 -23.9034 -23.8524 -23.5108 -12.2463 -12.2267 -11.4968 -11.4233
    -9.5693  -8.8404  -7.9869  -7.7188  -6.5890  -6.4435  -6.1107  -6.0262

          k =-0.5303 0.5518 0.0000 ( 18128 PWs)   bands (ev):

   -24.2808 -23.9203 -23.8476 -23.4955 -12.2040 -12.1616 -11.6212 -11.4807
    -9.4070  -8.6269  -8.2624  -7.8431  -6.5072  -6.3935  -6.1105  -6.0577

          k =-0.4843-0.3070 0.0000 ( 18166 PWs)   bands (ev):

   -24.2828 -23.9388 -23.8404 -23.4823 -12.1130 -11.9487 -11.8910 -11.5826
    -9.2218  -8.6909  -8.1720  -8.0356  -6.3632  -6.2992  -6.1918  -6.1738

     highest occupied level (ev):    -6.0262

!    total energy              =    -176.32086191 Ry
     estimated scf accuracy    <          9.6E-11 Ry

     convergence has been achieved in   1 iterations

     negative rho (up, down):  4.843E-04 0.000E+00

     Forces acting on atoms (cartesian axes, Ry/au):

     atom    1 type  1   force =     0.00000080   -0.00000286    0.00000349
     atom    2 type  1   force =    -0.00000332   -0.00000021    0.00000165
     atom    3 type  1   force =     0.00000669   -0.00000005   -0.00000558
     atom    4 type  1   force =     0.00000143   -0.00000159   -0.00000808
     atom    5 type  1   force =     0.00000613   -0.00000086   -0.00000341
     atom    6 type  1   force =    -0.00000334   -0.00000366    0.00000362
     atom    7 type  1   force =    -0.00000603   -0.00000257    0.00000220
     atom    8 type  1   force =     0.00000413    0.00000488    0.00000381
     atom    9 type  2   force =    -0.00000027   -0.00000078    0.00000522
     atom   10 type  2   force =     0.00000130   -0.00000419   -0.00000524
     atom   11 type  2   force =     0.00000268    0.00000209    0.00000530
     atom   12 type  2   force =    -0.00001019    0.00000979   -0.00000299

     Total force =     0.000026     Total SCF correction =     0.000034
     SCF correction compared to forces is large: reduce conv_thr to get better values

     Entering Dynamics:    iteration =   103

     <vel(dt)|acc(dt)> =   0.37868429

ATOMIC_POSITIONS (angstrom)
H             4.4733826318        3.7449552403       11.2229347930
H             5.3209535390        4.3039108500       10.0178988984
H             3.2968717414        1.1565613463        8.0886755799
H             3.1454556932        2.8648599478        9.3220833935
H             3.9929599525        3.4238517467        8.1170132468
H             6.3315994098        3.9815740904        8.0943047141
H             3.0065768925        1.8177652698       11.2512861481
H             2.1348040141        3.1871278974       11.2455833463
O             5.2907585704        4.2812293169       11.0187576996
O             3.1756128060        2.8875478691        8.3212223093
O             5.4272971455        4.3693068687        8.2643735193
O             3.0391140545        2.7994163147       11.0755524295



     Writing config-only to output data dir ./output/f-BH.save/
     NEW-OLD atomic charge density approx. for the potential

     negative rho (up, down):  4.843E-04 0.000E+00

     total cpu time spent up to now is     5895.7 secs

     per-process dynamical memory:   216.1 Mb

     Self-consistent Calculation

     iteration #  1     ecut=    60.00 Ry     beta= 0.70
     Davidson diagonalization with overlap
     ethr =  1.00E-06,  avg # of iterations =  1.0

     Threshold (ethr) on eigenvalues was too large:
     Diagonalizing with lowered threshold

     Davidson diagonalization with overlap
     ethr =  2.77E-13,  avg # of iterations =  4.0

     negative rho (up, down):  4.843E-04 0.000E+00

     total cpu time spent up to now is     5906.6 secs

     total energy              =    -176.32086191 Ry
     estimated scf accuracy    <          2.7E-10 Ry

     iteration #  2     ecut=    60.00 Ry     beta= 0.70
     Davidson diagonalization with overlap
     ethr =  8.30E-13,  avg # of iterations =  3.0

     negative rho (up, down):  4.843E-04 0.000E+00

     total cpu time spent up to now is     5912.9 secs

     total energy              =    -176.32086191 Ry
     estimated scf accuracy    <          2.0E-10 Ry

     iteration #  3     ecut=    60.00 Ry     beta= 0.70
     Davidson diagonalization with overlap
     ethr =  6.31E-13,  avg # of iterations =  2.0

     negative rho (up, down):  4.843E-04 0.000E+00

     total cpu time spent up to now is     5918.0 secs

     End of self-consistent calculation

          k = 0.0000 0.0000 0.0000 ( 18047 PWs)   bands (ev):

   -24.6494 -24.2323 -23.4478 -23.0837 -12.0264 -11.8845 -11.8760 -11.8126
   -10.1095  -9.0472  -7.5399  -7.0157  -6.4284  -6.4099  -6.3234  -6.1816

          k =-0.0153 0.2863 0.0000 ( 18132 PWs)   bands (ev):

   -24.5134 -24.1006 -23.6182 -23.2479 -12.1500 -12.1037 -11.6421 -11.5798
    -9.8783  -8.9636  -7.7399  -7.3446  -6.5414  -6.4421  -6.2126  -6.1010

          k = 0.0307-0.5725 0.0000 ( 18166 PWs)   bands (ev):

   -24.2869 -23.9012 -23.8556 -23.5023 -12.2161 -12.2011 -11.5080 -11.4304
    -9.5693  -8.8339  -8.0016  -7.7438  -6.5948  -6.4435  -6.1216  -6.0273

          k = 0.2575-0.1328 0.0000 ( 18109 PWs)   bands (ev):

   -24.5112 -24.0985 -23.6199 -23.2496 -12.1672 -12.1247 -11.6260 -11.5763
    -9.8752  -8.9645  -7.7344  -7.3380  -6.5387  -6.4409  -6.2068  -6.1019

          k = 0.2421 0.1535 0.0000 ( 18132 PWs)   bands (ev):

   -24.5128 -24.1055 -23.6184 -23.2425 -12.0699 -11.9203 -11.8938 -11.6815
    -9.7760  -8.8628  -7.9008  -7.3997  -6.4058  -6.3157  -6.2427  -6.2244

          k = 0.2882-0.7053 0.0000 ( 18147 PWs)   bands (ev):

   -24.2855 -23.9200 -23.8480 -23.4915 -12.1884 -12.1457 -11.6295 -11.4864
    -9.4059  -8.6190  -8.2711  -7.8561  -6.5082  -6.3956  -6.1184  -6.0569

          k = 0.2728-0.4190 0.0000 ( 18128 PWs)   bands (ev):

   -24.2827 -23.9018 -23.8544 -23.5062 -12.2363 -12.2325 -11.4844 -11.4252
    -9.5440  -8.8011  -8.0196  -7.7910  -6.5768  -6.4490  -6.0876  -6.0337

          k =-0.5150 0.2656 0.0000 ( 18184 PWs)   bands (ev):

   -24.2778 -23.9034 -23.8524 -23.5108 -12.2463 -12.2267 -11.4968 -11.4233
    -9.5693  -8.8404  -7.9868  -7.7188  -6.5890  -6.4435  -6.1107  -6.0262

          k =-0.5303 0.5518 0.0000 ( 18128 PWs)   bands (ev):

   -24.2808 -23.9203 -23.8476 -23.4955 -12.2040 -12.1616 -11.6212 -11.4807
    -9.4070  -8.6269  -8.2624  -7.8431  -6.5072  -6.3934  -6.1105  -6.0577

          k =-0.4843-0.3070 0.0000 ( 18166 PWs)   bands (ev):

   -24.2828 -23.9387 -23.8404 -23.4823 -12.1130 -11.9487 -11.8910 -11.5825
    -9.2218  -8.6909  -8.1720  -8.0356  -6.3632  -6.2992  -6.1918  -6.1738

     highest occupied level (ev):    -6.0262

!    total energy              =    -176.32086191 Ry
     estimated scf accuracy    <          3.2E-12 Ry

     convergence has been achieved in   3 iterations

     negative rho (up, down):  4.843E-04 0.000E+00

     Forces acting on atoms (cartesian axes, Ry/au):

     atom    1 type  1   force =     0.00000044   -0.00000238    0.00000384
     atom    2 type  1   force =    -0.00000326    0.00000012    0.00000407
     atom    3 type  1   force =     0.00000641    0.00000062   -0.00000506
     atom    4 type  1   force =     0.00000097   -0.00000151   -0.00000634
     atom    5 type  1   force =     0.00000307   -0.00000240   -0.00000284
     atom    6 type  1   force =    -0.00000173   -0.00000407    0.00000348
     atom    7 type  1   force =    -0.00000617    0.00000502    0.00000071
     atom    8 type  1   force =    -0.00000359    0.00000801    0.00000520
     atom    9 type  2   force =    -0.00000208    0.00000016    0.00000283
     atom   10 type  2   force =     0.00000625   -0.00000150   -0.00000906
     atom   11 type  2   force =     0.00000028    0.00000274    0.00000668
     atom   12 type  2   force =    -0.00000060   -0.00000481   -0.00000352

     Total force =     0.000025     Total SCF correction =     0.000003
     SCF correction compared to forces is large: reduce conv_thr to get better values

     Damped Dynamics: convergence achieved in 103 steps

     End of damped dynamics calculation

     Final energy =    -176.3208619067 Ry

Begin final coordinates
     new unit-cell volume =   2310.35306 a.u.^3 (   342.35900 Ang^3 )
     density =      0.34952 g/cm^3

CELL_PARAMETERS (angstrom)
   4.663506260   0.249952261   0.000000000
   2.162974597   4.194394484   0.000000000
   0.000000000   0.000000000  18.000000000

ATOMIC_POSITIONS (angstrom)
H             4.4733826318        3.7449552403       11.2229347930
H             5.3209535390        4.3039108500       10.0178988984
H             3.2968717414        1.1565613463        8.0886755799
H             3.1454556932        2.8648599478        9.3220833935
H             3.9929599525        3.4238517467        8.1170132468
H             6.3315994098        3.9815740904        8.0943047141
H             3.0065768925        1.8177652698       11.2512861481
H             2.1348040141        3.1871278974       11.2455833463
O             5.2907585704        4.2812293169       11.0187576996
O             3.1756128060        2.8875478691        8.3212223093
O             5.4272971455        4.3693068687        8.2643735193
O             3.0391140545        2.7994163147       11.0755524295
End final coordinates



     Writing all to output data dir ./output/f-BH.save/

     init_run     :      9.86s CPU      9.97s WALL (       1 calls)
     electrons    :   4539.50s CPU   4593.20s WALL (     104 calls)
     update_pot   :    654.96s CPU    658.76s WALL (     103 calls)
     forces       :    587.70s CPU    594.91s WALL (     104 calls)

     Called by init_run:
     wfcinit      :      1.97s CPU      1.98s WALL (       1 calls)
     potinit      :      3.86s CPU      3.90s WALL (       1 calls)
     hinit0       :      3.73s CPU      3.77s WALL (       1 calls)

     Called by electrons:
     c_bands      :   3264.41s CPU   3268.32s WALL (     773 calls)
     sum_band     :    613.46s CPU    629.51s WALL (     773 calls)
     v_of_rho     :    453.86s CPU    477.15s WALL (     809 calls)
     newd         :    136.87s CPU    150.74s WALL (     809 calls)
     PAW_pot      :     79.75s CPU     79.77s WALL (     912 calls)
     mix_rho      :     31.72s CPU     32.49s WALL (     773 calls)

     Called by c_bands:
     init_us_2    :     34.36s CPU     34.44s WALL (    5262 calls)
     init_us_2:cp :     34.32s CPU     34.42s WALL (    5262 calls)
     cegterg      :   3187.50s CPU   3191.28s WALL (    2319 calls)

     Called by *egterg:
     cdiaghg      :      2.41s CPU      2.41s WALL (    8190 calls)
     h_psi        :   2202.32s CPU   2205.71s WALL (    8706 calls)
     s_psi        :    254.12s CPU    254.25s WALL (    8706 calls)
     g_psi        :     10.97s CPU     11.01s WALL (    6384 calls)

     Called by h_psi:
     h_psi:calbec :    254.79s CPU    254.83s WALL (    8706 calls)
     vloc_psi     :   1679.41s CPU   1682.66s WALL (    8706 calls)
     add_vuspsi   :    256.39s CPU    256.49s WALL (    8706 calls)

     General routines
     calbec       :    382.07s CPU    382.18s WALL (   12582 calls)
     fft          :    221.60s CPU    221.82s WALL (   11624 calls)
     ffts         :     12.67s CPU     12.68s WALL (    1582 calls)
     fftw         :   1580.77s CPU   1583.85s WALL (  269998 calls)
     interpolate  :     33.92s CPU     33.97s WALL (     809 calls)

     Parallel routines

     PWSCF        :      1h37m CPU      1h38m WALL


   This run was terminated on:  22:37: 3   5Jan2024            

=------------------------------------------------------------------------------=
   JOB DONE.
=------------------------------------------------------------------------------=
