
1.0
       20.0000000000         0.0000000000         0.0000000000
        0.0000000000        25.9999980927         0.0000000000
        0.0000000000         0.0000000000        15.9999990463
    O   Si
  432  216
Direct
     0.543058813         0.391641855         0.710228443
     0.311776191         0.652317762         0.696995676
     0.689064264         0.784276962         0.461037159
     0.693819165         0.674036503         0.501517057
     0.909258127         0.686917603         0.494956732
     0.241498709         0.248721600         0.427730560
     0.933929920         0.959348381         0.209803343
     0.330096722         0.818881512         0.083434701
     0.172490597         0.773068249         0.968439102
     0.913416862         0.581531048         0.106744714
     0.430091143         0.870082855         0.977725625
     0.376958966         0.414974451         0.205489159
     0.589491725         0.204730988         0.666141272
     0.206354380         0.153593063         0.473221630
     0.977944016         0.588423371         0.278752565
     0.680066109         0.584049225         0.356262207
     0.597883344         0.503177166         0.416084170
     0.081054062         0.795410633         0.455945790
     0.209559888         0.331676006         0.249677181
     0.950417042         0.335924745         0.650187492
     0.758588314         0.789091766         0.697745442
     0.266784936         0.152225614         0.768298864
     0.868187904         0.802161694         0.649703503
     0.763619661         0.180244148         0.506685734
     0.008474112         0.252668023         0.403280020
     0.205068767         0.673808098         0.932304382
     0.581577897         0.717366099         0.991142631
     0.775668204         0.941447020         0.872587502
     0.373719811         0.070274830         0.912552834
     0.897824049         0.558831453         0.434458971
     0.783608079         0.873522699         0.634783030
     0.673915148         0.580757856         0.177614689
     0.696800947         0.484863162         0.663801074
     0.268971682         0.220487118         0.907165527
     0.158283234         0.525834322         0.760592461
     0.218089044         0.619096756         0.637936175
     0.103844285         0.070947409         0.666428089
     0.392505169         0.738100588         0.144122601
     0.978441715         0.246571660         0.712376356
     0.936667502         0.332043409         0.935196638
     0.610983253         0.679503560         0.859848261
     0.123202801         0.398163319         0.952548265
     0.320079684         0.531939030         0.327333450
     0.332765609         0.150826573         0.352395535
     0.387594700         0.963490605         0.987081766
     0.655709505         0.978293657         0.038929105
     0.159156442         0.434804440         0.661023140
     0.132856309         0.111775160         0.386229813
     0.630027235         0.146900341         0.136099577
     0.751998425         0.110095263         0.228686303
     0.114433289         0.068493128         0.858415484
     0.489952207         0.113455296         0.875364780
     0.825729251         0.917690992         0.014729023
     0.475369453         0.861586452         0.113700628
     0.122594833         0.750411749         0.825438499
     0.841270447         0.227276683         0.437788010
     0.396830320         0.607013941         0.075538158
     0.648330688         0.112096190         0.646514893
     0.368123293         0.933250666         0.682269812
     0.162544489         0.139585793         0.064554691
     0.622513175         0.856492400         0.322919130
     0.911888242         0.999586821         0.348115921
     0.779554129         0.591941118         0.099343851
     0.151623547         0.854814410         0.754242241
     0.295394182         0.792737961         0.238884568
     0.788242698         0.637098670         0.776157856
     0.423546314         0.228756428         0.348952800
     0.065149784         0.422425270         0.194428682
     0.693910480         0.536669016         0.016870975
     0.853497267         0.253111482         0.653291225
     0.148079038         0.505987585         0.444171906
     0.392327309         0.709544182         0.834144473
     0.038141012         0.976868868         0.990301013
     0.728615224         0.719033480         0.810621321
     0.856104374         0.502679348         0.092796326
     0.432162106         0.563965082         0.961199760
     0.084329359         0.218025088         0.904176474
     0.744863033         0.278569698         0.110952854
     0.664872408         0.643219948         0.022317410
     0.098648548         0.413484335         0.517457485
     0.500021815         0.263062894         0.047990441
     0.317178369         0.180879474         0.224594593
     0.143698215         0.993855715         0.723845363
     0.713359952         0.019729853         0.340178967
     0.671825171         0.613110185         0.861735106
     0.726641238         0.236593008         0.989786148
     0.008632779         0.886473894         0.759981394
     0.445079088         0.134530112         0.437391281
     0.575079739         0.483071804         0.026163578
     0.503199100         0.843202949         0.600648999
     0.841656208         0.397623658         0.561642647
     0.430897027         0.561802268         0.397615910
     0.098910332         0.071104169         0.264294505
     0.169889927         0.173752308         0.860100150
     0.200364232         0.604076028         0.172184944
     0.455455780         0.182126045         0.970896006
     0.525846958         0.072861984         0.519477129
     0.289231062         0.843121052         0.737278700
     0.778975844         0.941976070         0.704395771
     0.940007210         0.442036629         0.248558044
     0.811943114         0.719228506         0.164444923
     0.681750476         0.387320638         0.614274502
     0.840330601         0.073087215         0.791483164
     0.706431746         0.876423359         0.028124034
     0.102380514         0.902563691         0.201489180
     0.219309807         0.033208642         0.225040674
     0.945858479         0.563632131         0.569612026
     0.280718327         0.472511411         0.461860418
     0.037716389         0.025894165         0.563100338
     0.199259818         0.237209558         0.601226807
     0.657283545         0.951837063         0.313380361
     0.365956306         0.425119877         0.955239058
     0.021743059         0.496291041         0.005851567
     0.883277893         0.416086197         0.091349602
     0.071448803         0.149570942         0.777945757
     0.996335924         0.522257566         0.836637378
     0.491402060         0.213334322         0.845366478
     0.543116093         0.452253819         0.287609577
     0.518311858         0.363648891         0.275237799
     0.914975405         0.788202405         0.465629816
     0.593096197         0.186203480         0.278549671
     0.966089725         0.393256664         0.551574707
     0.548855662         0.963062286         0.985981703
     0.324173093         0.975390911         0.125208855
     0.523977637         0.545592904         0.144453287
     0.613677025         0.277656078         0.236502647
     0.231545210         0.596638322         0.788978934
     0.770941973         0.440216541         0.380871058
     0.871002078         0.008672595         0.150439382
     0.802510500         0.936353803         0.308444709
     0.415264845         0.917674780         0.842882872
     0.883696318         0.701780081         0.867798328
     0.852027237         0.278841019         0.306169987
     0.567432880         0.033778895         0.344299197
     0.217752695         0.111106202         0.929623604
     0.095175266         0.478787065         0.893027425
     0.436666489         0.936582625         0.550676584
     0.139197946         0.571866870         0.304642200
     0.471461773         0.455146790         0.105471134
     0.724873543         0.627032161         0.662356615
     0.565387011         0.867232323         0.020934820
     0.847125769         0.227130815         0.160054207
     0.506096721         0.346259117         0.610097408
     0.686776519         0.127674580         0.990926027
     0.437911034         0.378960848         0.865129232
     0.931549072         0.374119997         0.774377584
     0.867877126         0.281130314         0.800229132
     0.238033533         0.679487228         0.360378325
     0.584329605         0.292086601         0.720673084
     0.377456903         0.377064466         0.528912306
     0.769513667         0.448987007         0.515546083
     0.005006313         0.800776720         0.776202917
     0.932462215         0.130457640         0.125446320
     0.577210188         0.375307798         0.862479210
     0.886519670         0.736984968         0.330002546
     0.846565545         0.335438728         0.170816183
     0.811182976         0.854626179         0.791448593
     0.426524401         0.695472956         0.550245762
     0.703903794         0.246335730         0.686465859
     0.994199574         0.074598789         0.762641191
     0.757127523         0.392676115         0.272377014
     0.227861881         0.073466659         0.377583891
     0.349036366         0.793123007         0.933095455
     0.988615990         0.160272837         0.661543369
     0.569999754         0.882973433         0.494073868
     0.496954650         0.438816845         0.574728370
     0.846824765         0.157399178         0.796441555
     0.525054216         0.194360375         0.154436350
     0.384738684         0.477433205         0.835382462
     0.937018871         0.174504459         0.468665123
     0.328886509         0.644908071         0.187029362
     0.505677581         0.300359726         0.905680358
     0.964092135         0.728715479         0.638148904
     0.963526726         0.677489996         0.995510817
     0.599613786         0.788940668         0.835664272
     0.138641357         0.019051194         0.393957138
     0.735260367         0.052096128         0.552393198
     0.594337583         0.176390067         0.795471430
     0.648630202         0.361203790         0.314193726
     0.620606482         0.312949300         0.584440947
     0.421723962         0.426345706         0.375322938
     0.318150759         0.285751104         0.796169043
     0.764999390         0.637710929         0.285143137
     0.322832108         0.821994543         0.379876137
     0.437711835         0.303029269         0.772357404
     0.362144947         0.353832364         0.665224075
     0.529260635         0.361377478         0.003335953
     0.956780434         0.628165483         0.815662146
     0.800493717         0.427299857         0.703509450
     0.700311780         0.571565151         0.547547996
     0.065865040         0.284954309         0.026172161
     0.734488726         0.282876015         0.533598185
     0.491136581         0.181221962         0.560293198
     0.147296429         0.788899541         0.300279737
     0.286692142         0.875870407         0.977034569
     0.312794209         0.799773216         0.530145168
     0.690103471         0.882726908         0.769442081
     0.562021255         0.289950550         0.359786510
     0.501513124         0.108009994         0.195368767
     0.027991533         0.783278704         0.235065222
     0.344989538         0.622894645         0.406890452
     0.100128114         0.607100010         0.880067229
     0.627521932         0.785750389         0.984923720
     0.782966137         0.162346959         0.926813006
     0.204688072         0.398066163         0.509392202
     0.983819127         0.947579145         0.500861347
     0.480419636         0.764293671         0.055149317
     0.865848422         0.148466587         0.252338082
     0.456010759         0.292927265         0.225703001
     0.284766555         0.755224228         0.636479139
     0.095646143         0.706537127         0.032924891
     0.584002614         0.696284711         0.118659712
     0.616490245         0.744864345         0.364761829
     0.530073762         0.848423958         0.753599048
     0.466380060         0.558166027         0.634147286
     0.484023929         0.955931187         0.710624814
     0.536564589         0.883064806         0.239045411
     0.179866135         0.892995358         0.087459683
     0.788988590         0.330053687         0.706855059
     0.652819872         0.691733837         0.695514202
     0.834933996         0.249299511         0.938246727
     0.066526175         0.236474156         0.607623994
     0.641583323         0.984811068         0.862741590
     0.224622965         0.928663135         0.778319299
     0.954401255         0.055333614         0.888224602
     0.910496950         0.159054220         0.942384720
     0.906295061         0.910538793         0.625600338
     0.347012997         0.715023994         0.443377018
     0.029974937         0.137027472         0.999754667
     0.053001523         0.609745264         0.566543579
     0.824944735         0.990955710         0.583850384
     0.798036098         0.079129219         0.654291630
     0.266813695         0.432639480         0.276640892
     0.025939465         0.306569338         0.508250952
     0.732063830         0.256888866         0.259706974
     0.664104640         0.444580793         0.938927770
     0.797360539         0.892842889         0.166891456
     0.621090651         0.464253902         0.532433152
     0.614092588         0.610100031         0.468179554
     0.072874546         0.836036682         0.902696609
     0.107350200         0.863694906         0.375506163
     0.583166242         0.938773632         0.622746706
     0.324561596         0.542245150         0.732095480
     0.066529274         0.819695711         0.629597902
     0.797357082         0.998223186         0.028515816
     0.638008118         0.083278015         0.870215654
     0.995890021         0.782552242         0.960818529
     0.353133917         0.258729219         0.632330656
     0.037584145         0.978536129         0.165685177
     0.124432206         0.248395324         0.454806805
     0.177340150         0.543026209         0.919031143
     0.251777053         0.437595338         0.980863094
     0.848248959         0.053184748         0.270675361
     0.448111415         0.990065634         0.256731957
     0.564892411         0.640282631         0.235596180
     0.278484881         0.189301953         0.080810070
     0.325417995         0.496389627         0.162252903
     0.004088985         0.715810061         0.859199882
     0.387138426         0.332355499         0.095270105
     0.766720831         0.446694374         0.055246830
     0.674623907         0.234812498         0.405273736
     0.762347698         0.083314702         0.079574801
     0.672423124         0.937607229         0.468480110
     0.040150642         0.408473194         0.359698296
     0.077332854         0.322343826         0.210740298
     0.491514206         0.544419169         0.788666248
     0.846488953         0.753063440         0.010958672
     0.425100148         0.329305649         0.377194881
     0.058954954         0.709415674         0.535464227
     0.057897687         0.337874591         0.863250971
     0.215761900         0.014326535         0.909797192
     0.580242515         0.609429121         0.706657410
     0.695333898         0.735432148         0.111458719
     0.351086140         0.064135134         0.239327073
     0.424518824         0.461861491         0.681858778
     0.718551040         0.067533016         0.741920710
     0.151676893         0.972848296         0.579047680
     0.419226170         0.193561316         0.683044195
     0.537167549         0.765477657         0.539086461
     0.803933144         0.614292383         0.544072628
     0.671703815         0.560039282         0.720131159
     0.678586960         0.362270832         0.455423266
     0.027868986         0.641900301         0.126847506
     0.221563175         0.968769014         0.470738590
     0.410842180         0.498326302         0.043070242
     0.926291406         0.679354191         0.199913800
     0.891409636         0.435018748         0.373507261
     0.899337292         0.310870886         0.463081360
     0.197585046         0.256714702         0.170935750
     0.450518847         0.591653347         0.258490562
     0.292813867         0.333315134         0.950800419
     0.535168171         0.542375684         0.511457443
     0.220383003         0.800210357         0.427294850
     0.093637586         0.321242929         0.359042645
     0.162344933         0.400817990         0.813548982
     0.429489017         0.144514322         0.270816684
     0.567786813         0.152517796         0.966616213
     0.160519600         0.222007275         0.028085232
     0.049182862         0.939673185         0.655578732
     0.315542221         0.434606671         0.586123586
     0.600190461         0.801232517         0.686786234
     0.118721008         0.723730326         0.196648121
     0.747722626         0.266139686         0.807394445
     0.897311211         0.769512892         0.179142475
     0.433628082         0.813634813         0.470869064
     0.804170847         0.734067202         0.499764323
     0.010551333         0.910185039         0.317315936
     0.531348825         0.020682096         0.145834208
     0.707258463         0.343549728         0.009304523
     0.081300616         0.167676225         0.137536764
     0.573889256         0.537313461         0.262952328
     0.518332601         0.813364983         0.927580357
     0.334828854         0.971842885         0.392289162
     0.414623320         0.042541504         0.123657942
     0.215633512         0.863020599         0.240472317
     0.065656066         0.058077574         0.099097252
     0.849557400         0.092744954         0.530895591
     0.546525776         0.749946117         0.233886242
     0.140164375         0.470532179         0.048538126
     0.631951451         0.265069008         0.064305782
     0.749537468         0.154027462         0.691971779
     0.592848420         0.494819164         0.766394377
     0.089727238         0.535938740         0.163557053
     0.324482799         0.514619708         0.949539304
     0.671292067         0.383959651         0.159318447
     0.964885473         0.206413031         0.205887318
     0.856837630         0.734838128         0.724723816
     0.690638185         0.371327579         0.796789408
     0.155627608         0.930825830         0.954923868
     0.371749878         0.845198870         0.626322269
     0.254137635         0.892657161         0.385433137
     0.098371506         0.236163616         0.280745685
     0.306563795         0.058010101         0.083779633
     0.298774123         0.364278227         0.376899719
     0.724400759         0.183636248         0.130755424
     0.801801085         0.451728672         0.203138828
     0.554786623         0.321001410         0.130921364
     0.211176634         0.842981339         0.888105869
     0.171447456         0.413263321         0.344776869
     0.305600882         0.147207856         0.607563972
     0.563272715         0.992225409         0.488358736
     0.123300672         0.019966125         0.990787029
     0.578173995         0.148147345         0.432999015
     0.171595573         0.760685205         0.544209838
     0.042310238         0.492311954         0.574784279
     0.370872378         0.534269810         0.562326550
     0.801840186         0.374871612         0.855913639
     0.753958344         0.991705656         0.191866323
     0.015116692         0.146975517         0.289387941
     0.505242825         0.457655668         0.884640574
     0.208705425         0.515523434         0.211699486
     0.457267642         0.631849289         0.475055575
     0.304849148         0.899218440         0.537012696
     0.260695100         0.541994572         0.594455719
     0.937548518         0.827611923         0.284831047
     0.538620472         0.625268459         0.943994999
     0.400360525         0.845516801         0.218785957
     0.529107749         0.438130856         0.410109937
     0.581731677         0.069244981         0.044612885
     0.451403737         0.677088380         0.187460065
     0.638640285         0.962761998         0.177822113
     0.413322687         0.160661042         0.113331079
     0.033573031         0.581742942         0.704559743
     0.870897532         0.869237900         0.376818180
     0.822520256         0.549751401         0.642887235
     0.382277608         0.247385785         0.108349562
     0.879773378         0.570605040         0.953485727
     0.220249176         0.718202949         0.090639114
     0.234428406         0.348799795         0.644111633
     0.461473882         0.718277454         0.376868308
     0.028485775         0.043172359         0.415361524
     0.995380163         0.512696505         0.378539562
     0.454155445         0.944081068         0.144756556
     0.134368300         0.323344171         0.632284641
     0.978387117         0.869695663         0.154908299
     0.962065458         0.988654494         0.713247538
     0.817165852         0.123258770         0.384097576
     0.460086584         0.025756598         0.414803147
     0.282936454         0.750326157         0.821720123
     0.628363848         0.891563654         0.908590674
     0.380226851         0.791150451         0.766758919
     0.605499446         0.016288519         0.718363345
     0.153791189         0.060674191         0.530323982
     0.827576876         0.045514703         0.934214473
     0.915391088         0.448058128         0.648625851
     0.973543644         0.058333218         0.238749027
     0.749545097         0.531654477         0.262406349
     0.271644235         0.044540543         0.714038789
     0.032067776         0.401952863         0.679371357
     0.371912599         0.257325888         0.913495064
     0.541438222         0.794574976         0.405003905
     0.126079321         0.249688387         0.752817810
     0.707772732         0.730896473         0.608886480
     0.662595749         0.040613294         0.157291651
     0.632430077         0.213149786         0.552213192
     0.796594322         0.818520784         0.069830656
     0.357589126         0.331032872         0.255077600
     0.444057882         0.673938990         0.004973173
     0.896501541         0.969144821         0.859846592
     0.431740403         0.999902427         0.808143139
     0.990038812         0.420844316         0.890886545
     0.154663801         0.809060216         0.158717394
     0.582962751         0.519758582         0.901135445
     0.218286037         0.688679695         0.739315152
     0.669302464         0.464067817         0.330937862
     0.463162184         0.638777018         0.743638992
     0.467010856         0.923969746         0.369910717
     0.061888095         0.988561511         0.836493969
     0.371342689         0.083801270         0.751042366
     0.962107658         0.217525721         0.027128696
     0.512725830         0.125387073         0.697968543
     0.954463482         0.235175833         0.548452616
     0.253339171         0.454617739         0.820719838
     0.938671112         0.074144125         0.620115757
     0.320398808         0.408495665         0.084995747
     0.484724581         0.750001848         0.691137791
     0.775320768         0.330205351         0.398505479
     0.203654528         0.130121231         0.271569490
     0.796288729         0.948696613         0.448480129
     0.697647572         0.462846041         0.810825944
     0.923736572         0.315931618         0.072138309
     0.870589018         0.486978531         0.531849742
     0.551539421         0.672699690         0.596323729
     0.260218143         0.691376209         0.538996458
     0.225421429         0.598865747         0.433128357
     0.988181114         0.632949591         0.452323437
     0.400232315         0.617077231         0.873187304
     0.193552494         0.306229115         0.879729033
     0.294121742         0.598486125         0.052548196
     0.099930406         0.958766520         0.448558927
     0.979801476         0.738013029         0.095979214
     0.823133945         0.332098007         0.976733208
     0.108299971         0.196562394         0.817711830
     0.372070789         0.577012539         0.334304750
     0.962341785         0.154935122         0.010915279
     0.436500907         0.720943987         0.086121559
     0.366394401         0.763567626         0.854331851
     0.409765244         0.155146986         0.368163198
     0.637584925         0.157094300         0.706765890
     0.500810862         0.410491705         0.332563639
     0.308370173         0.389732599         0.990698218
     0.720139623         0.369081974         0.369720459
     0.615283489         0.640265822         0.650120258
     0.861962557         0.144144312         0.453636169
     0.615587592         0.105111092         0.958976030
     0.152670503         0.733331919         0.056865215
     0.424450874         0.926195621         0.939470649
     0.720438242         0.095994480         0.627831340
     0.970092177         0.334217548         0.542814970
     0.838484764         0.453264028         0.608845711
     0.904331207         0.180482984         0.180159569
     0.004933000         0.582972050         0.798363984
     0.304562449         0.113038778         0.704387903
     0.147286057         0.264018953         0.661277533
     0.358368218         0.798835754         0.450816631
     0.614388704         0.243545428         0.348572612
     0.878232241         0.554858327         0.055444479
     0.633798361         0.721372366         0.056882977
     0.812939644         0.281346560         0.217546105
     0.960325360         0.572567046         0.374818325
     0.376301050         0.452954769         0.122664928
     0.262446880         0.155616879         0.327934742
     0.141476154         0.352941513         0.864775658
     0.403482556         0.668133020         0.465119362
     0.003510714         0.923345566         0.202032566
     0.168144226         0.052180529         0.938174367
     0.975046158         0.016715288         0.810307026
     0.889579773         0.715683520         0.246803761
     0.020390272         0.774790168         0.866475463
     0.946443737         0.234963179         0.449736476
     0.302952975         0.038207054         0.180555701
     0.577172399         0.338201046         0.675563335
     0.138273478         0.809500933         0.410232067
     0.823401749         0.970815539         0.943981171
     0.061112881         0.477364421         0.114962101
     0.813949347         0.102551065         0.287417889
     0.447622538         0.260058880         0.880560398
     0.834377766         0.288978696         0.408557534
     0.602156401         0.012536895         0.105083227
     0.079247475         0.381120086         0.278853178
     0.865760803         0.352609515         0.065490484
     0.044192433         0.195060968         0.238697290
     0.713778138         0.743841410         0.522187829
     0.424474120         0.969114423         0.341890693
     0.670303106         0.409685135         0.867084742
     0.962095976         0.627032757         0.179006696
     0.501432061         0.723181903         0.589437366
     0.351369351         0.554721117         0.025032043
     0.532337666         0.503059626         0.819655061
     0.756071687         0.585162520         0.603796840
     0.634744048         0.500478983         0.963011682
     0.724795580         0.391079724         0.084902763
     0.832037926         0.195638657         0.892019272
     0.291591346         0.279204488         0.891771436
     0.477646589         0.410266042         0.653563380
     0.253787518         0.680900514         0.650007010
     0.314618737         0.380156517         0.598976970
     0.357273668         0.195882678         0.149043560
     0.873864830         0.082276970         0.880245805
     0.581469536         0.328479052         0.266054630
     0.200100720         0.207889140         0.486720681
     0.338772774         0.202639580         0.618324757
     0.668436885         0.505418479         0.753692627
     0.510343671         0.825669885         0.492206812
     0.423828214         0.282437027         0.306573629
     0.912046492         0.758739650         0.663914204
     0.449957132         0.292861253         0.103637218
     0.276950598         0.655064344         0.427647591
     0.720232785         0.286600113         0.020746708
     0.567434907         0.149334431         0.205062389
     0.719980240         0.586002111         0.267837167
     0.465731144         0.008569372         0.147336960
     0.006802499         0.487635970         0.915627837
     0.146674603         0.815387428         0.908889890
     0.947137833         0.673014164         0.899679184
     0.178762317         0.376549959         0.601310015
     0.023832142         0.086454690         0.315498710
     0.974864125         0.444929600         0.335406184
     0.518220186         0.135965586         0.483797550
     0.220323801         0.873515785         0.736760557
     0.012521088         0.660341740         0.532303035
     0.216036171         0.897210598         0.000980616
     0.763216496         0.388924956         0.767272472
     0.089666665         0.776891649         0.559173584
     0.801232219         0.945068717         0.197919369
     0.872399092         0.557677269         0.533241391
     0.199975744         0.194782257         0.103406191
     0.973875761         0.929133892         0.669977665
     0.413647652         0.630927444         0.169590473
     0.238512516         0.382577538         0.314349651
     0.656656146         0.033311486         0.786879361
     0.713648081         0.973187387         0.410867214
     0.181153536         0.091865778         0.453722626
     0.834127903         0.450702280         0.442102104
     0.797739685         0.114096165         0.744811058
     0.999536037         0.211953327         0.625425577
     0.306429267         0.481346607         0.885016441
     0.180726230         0.454123497         0.764498234
     0.964693069         0.281358719         0.023378780
     0.278886795         0.940383434         0.442666054
     0.052051067         0.418844700         0.593614280
     0.922284424         0.743418097         0.019229271
     0.064373791         0.847687483         0.735895395
     0.612188935         0.535192490         0.505524755
     0.336416721         0.794504046         0.681756914
     0.098143220         0.976177812         0.921439528
     0.778100133         0.274664640         0.707573414
     0.705157042         0.219815239         0.495741010
     0.255189180         0.585244179         0.704963207
     0.689301252         0.121040821         0.108440399
     0.087168671         0.117503338         0.073391676
     0.067689419         0.996867299         0.091342665
     0.157660961         0.553810835         0.217000365
     0.240635723         0.164319813         0.892604589
     0.377245426         0.298656464         0.704647303
     0.816527009         0.842504621         0.691788673
     0.696743727         0.013809144         0.246354997
     0.216346502         0.001027942         0.750637531
     0.558287144         0.761707485         0.907142639
     0.998914719         0.094714165         0.674404204
     0.369042635         0.909499466         0.582204342
     0.314013720         0.831283450         0.993003368
     0.601772904         0.921357632         0.277872562
     0.925610423         0.013444483         0.240078926
     0.822399914         0.048046112         0.566605091
     0.943493366         0.392771602         0.682378769
     0.269789577         0.489489317         0.243739128
     0.089330435         0.005129814         0.640815973
     0.154261589         0.428589225         0.438809395
     0.528563976         0.750796616         0.342402965
     0.475730300         0.173300266         0.052388430
     0.549302697         0.980088234         0.674570978
     0.162777424         0.577234030         0.405933976
     0.549516439         0.461833477         0.497358084
     0.364729404         0.362775981         0.177048445
     0.560718060         0.304399848         0.037866116
     0.803336382         0.029683543         0.101971388
     0.494124353         0.844732285         0.029859345
     0.594439507         0.941789150         0.518063188
     0.170399010         0.587269664         0.863290071
     0.363423944         0.804393768         0.165842056
     0.692564666         0.441584349         0.567838252
     0.509670019         0.364291936         0.908539653
     0.109849632         0.776080728         0.222019434
     0.630270362         0.846939087         0.993323684
     0.467096448         0.623645902         0.937654495
     0.499544919         0.590807199         0.715845346
     0.155866697         0.994675636         0.481771588
     0.499054044         0.183880210         0.663073838
     0.787333369         0.757330298         0.100530863
     0.880604982         0.718217373         0.472734690
     0.776628792         0.878061771         0.073205471
     0.861002445         0.925169766         0.375627726
     0.841773748         0.313662648         0.883666992
     0.265543461         0.841043949         0.313563943
     0.832126796         0.702751160         0.806835353
     0.025982618         0.554896235         0.624499321
     0.422309518         0.099941492         0.195005894
     0.360237241         0.018859442         0.035861135
     0.258654207         0.760136843         0.497735977
     0.635205984         0.256551743         0.637050867
     0.680827618         0.250665545         0.179996967
     0.630032301         0.940451741         0.968339443
     0.680384576         0.630084276         0.448194504
     0.751607418         0.452991784         0.278631806
     0.417643547         0.064545155         0.823753595
     0.480228901         0.513574958         0.078314066
     0.289769650         0.503629208         0.539161921
     0.696340322         0.583716869         0.078915775
     0.099035122         0.091417089         0.762571931
     0.743555129         0.189492717         0.010630777
     0.469985485         0.888243318         0.195565343
     0.109363079         0.258045435         0.996173382
     0.619150758         0.646704197         0.928206563
     0.833036065         0.453483284         0.118332386
     0.527248621         0.029046167         0.448285580
     0.174372196         0.868004799         0.171223283
     0.479457498         0.581965446         0.484482169
     0.747607350         0.920690060         0.787749767
     0.980252504         0.367806226         0.858766437
     0.027192354         0.684096873         0.068640649
     0.691568613         0.332821429         0.534269571
     0.617612302         0.833320975         0.763474226
     0.268422842         0.638484597         0.134584665
     0.517590642         0.802340984         0.681733370
     0.153367281         0.067410469         0.307798624
     0.202944160         0.722946703         0.836752892
     0.366864681         0.375524998         0.428022385
     0.011925220         0.003492713         0.485443354
     0.530289650         0.160020828         0.859338284
     0.413793564         0.950255871         0.756711245
     0.562175751         0.582922041         0.218190074
     0.913342118         0.283778250         0.716170847
     0.155215383         0.466402769         0.961623847
     0.378866315         0.646495521         0.791319847
     0.701989651         0.744720578         0.723812103
     0.139152527         0.284803778         0.221922159
     0.537254095         0.690607190         0.197922945
     0.063011408         0.288416624         0.425693750
     0.913691640         0.818821549         0.376422882
     0.817993164         0.930068493         0.611885548
     0.429632664         0.439652383         0.902378321
     0.949599266         0.815607786         0.189592645
     0.387640417         0.516951323         0.666817665
     0.600296021         0.479503393         0.326468736
     0.711730003         0.619893432         0.774311066
     0.073618293         0.907914758         0.378104091
     0.625743270         0.799668074         0.397867322
